&GLOBAL
  PROJECT hse_smoke
  RUN_TYPE ENERGY
&END GLOBAL

&FORCE_EVAL
  METHOD QS
  &DFT
    BASIS_SET_FILE_NAME  BASIS_MOLOPT
    POTENTIAL_FILE_NAME  GTH_POTENTIALS
    &MGRID
      CUTOFF 400
    &END MGRID
    &QS
      EPS_DEFAULT 1.0E-12
    &END QS
    &SCF
      EPS_SCF 1.0E-6
      MAX_SCF 50
      &OT
        MINIMIZER DIIS
        PRECONDITIONER FULL_ALL
      &END OT
    &END SCF
    &XC
      &XC_FUNCTIONAL PBE
      &END XC_FUNCTIONAL
      &HF
        FRACTION 0.25
        &SCREENING
          EPS_SCHWARZ 1.0E-6
        &END SCREENING
        &ADMM
          METHOD BASIS_PROJECTION
        &END ADMM
      &END HF
    &END XC
  &END DFT
  &SUBSYS
    &CELL
      ABC 15.0 15.0 15.0
    &END CELL
    &TOPOLOGY
      COORD_FILE_FORMAT XYZ
      COORD_FILE inputs/as2se3_cluster.xyz
    &END TOPOLOGY
    &KIND As
      BASIS_SET DZVP-MOLOPT-SR-GTH
      POTENTIAL GTH-PBE
      &AUX_FIT_BASIS_SET ADMM_DZP
      &END AUX_FIT_BASIS_SET
    &END KIND
    &KIND Se
      BASIS_SET DZVP-MOLOPT-SR-GTH
      POTENTIAL GTH-PBE
      &AUX_FIT_BASIS_SET ADMM_DZP
      &END AUX_FIT_BASIS_SET
    &END KIND
  &END SUBSYS
&END FORCE_EVAL
