 # Version information for this restart file 
 # current date 2025-09-29 17:26:40.887
 # current working dir /Users/jdmusgraves/GitHub/local_shakedown_kit
 # Program compiled at                                       2025-01-01 12:26:53
 # Program compiled on                                                          
 # Program compiled for                                                    arm64
 # Source code revision number                                                  
 &GLOBAL
   PRINT_LEVEL LOW
   PROJECT_NAME "md_smoke_compat"
   RUN_TYPE MD
 &END GLOBAL
 &MOTION
   &MD
     ENSEMBLE NVT
     STEPS 500
     TIMESTEP  4.9999999999999994E-001
     STEP_START_VAL 60
     TIME_START_VAL  3.0000000000000018E+001
     ECONS_START_VAL -7.7983049204072381E+002
     TEMPERATURE  3.0000000000000000E+002
     &THERMOSTAT
       TYPE CSVR
       &CSVR
         TIMECON  9.9999999999999989E+002
         &THERMOSTAT_ENERGY
             5.5099600012085859E-002
         &END THERMOSTAT_ENERGY
         &RNG_INIT
 Wiener process for Thermostat # 1        1 F T F  -7.3997733419298461E-01        1843285057.0        2646832348.0        3607100645.0         319346762.0        2364604642.0        4113509601.0             12345.0             12345.0             12345.0             12345.0             12345.0             12345.0             12345.0             12345.0             12345.0             12345.0             12345.0             12345.0
         &END RNG_INIT
       &END CSVR
     &END THERMOSTAT
     &AVERAGES T
       &RESTART_AVERAGES
         ITIMES_START 1
         AVECPU  2.7746939200000003E+002
         AVEHUGONIOT  0.0000000000000000E+000
         AVETEMP_BARO  0.0000000000000000E+000
         AVEPOT -7.8125274282751718E+002
         AVEKIN  1.3823287607120849E+000
         AVETEMP  3.0631886154383960E+003
         AVEKIN_QM  0.0000000000000000E+000
         AVETEMP_QM  0.0000000000000000E+000
         AVEVOL  5.3986676664719977E+004
         AVECELL_A  3.7794522657712875E+001
         AVECELL_B  3.7794522657712875E+001
         AVECELL_C  3.7794522657712875E+001
         AVEALPHA  9.0000000000000000E+001
         AVEBETA  9.0000000000000000E+001
         AVEGAMMA  9.0000000000000000E+001
         AVE_ECONS -5.7833412804385844E+001
         AVE_PRESS  0.0000000000000000E+000
         AVE_PXX  0.0000000000000000E+000
       &END RESTART_AVERAGES
     &END AVERAGES
   &END MD
   &PRINT
     &TRAJECTORY SILENT
       FILENAME md_smoke_compat-pos-1.xyz
       FORMAT XMOL
       &EACH
         MD 5
       &END EACH
     &END TRAJECTORY
     &VELOCITIES SILENT
       FILENAME md_smoke_compat-vel-1.xyz
       &EACH
         MD 5
       &END EACH
     &END VELOCITIES
   &END PRINT
 &END MOTION
 &FORCE_EVAL
   METHOD QS
   &DFT
     BASIS_SET_FILE_NAME BASIS_MOLOPT
     POTENTIAL_FILE_NAME GTH_POTENTIALS
     &SCF
       MAX_SCF 120
       EPS_SCF  9.9999999999999995E-007
       SCF_GUESS ATOMIC
       IGNORE_CONVERGENCE_FAILURE T
       &OT T
         MINIMIZER DIIS
         LINESEARCH 2PNT
         PRECONDITIONER FULL_SINGLE_INVERSE
       &END OT
     &END SCF
     &QS
       EPS_DEFAULT  9.9999999999999998E-013
       EXTRAPOLATION ASPC
       EXTRAPOLATION_ORDER 3
     &END QS
     &MGRID
       CUTOFF  5.0000000000000000E+002
       REL_CUTOFF  6.0000000000000000E+001
     &END MGRID
     &XC
       DENSITY_CUTOFF  1.0000000000000000E-010
       GRADIENT_CUTOFF  1.0000000000000000E-010
       TAU_CUTOFF  1.0000000000000000E-010
       &XC_FUNCTIONAL NO_SHORTCUT
         &PBE T
         &END PBE
       &END XC_FUNCTIONAL
       &VDW_POTENTIAL
         POTENTIAL_TYPE PAIR_POTENTIAL
         &PAIR_POTENTIAL
           R_CUTOFF  1.6000000000000000E+001
           TYPE DFTD3
           PARAMETER_FILE_NAME dftd3.dat
           REFERENCE_FUNCTIONAL "PBE"
         &END PAIR_POTENTIAL
       &END VDW_POTENTIAL
     &END XC
   &END DFT
   &SUBSYS
     &CELL
       A  2.0000000000000004E+001  0.0000000000000000E+000  0.0000000000000000E+000
       B  0.0000000000000000E+000  2.0000000000000004E+001  0.0000000000000000E+000
       C  0.0000000000000000E+000  0.0000000000000000E+000  2.0000000000000004E+001
       MULTIPLE_UNIT_CELL 1 1 1
     &END CELL
     &COORD
       As  9.4396831887895427E+000  6.6080354504818599E+000  7.4830515301193126E+000
       As  1.3497192253213889E+001  1.9083579440294272E+001  1.3928683369794646E+001
       As  5.3552083787023790E+000  8.4993497054784211E+000  1.6777203454523335E+001
       As  2.0139458741959601E+001  1.2365559356728292E+001  1.6649691787085729E+001
       As  3.2365410789255438E+000  6.9475433354949512E-001  1.3804557168496506E+001
       As  9.1181763580983599E+000  1.5975888121837052E+001  1.8933920565005046E+001
       As  8.5903549346249797E+000  3.6865803017597454E-001  1.9321034304540138E+001
       As  7.0300043426188559E+000  2.6239136247438686E+000  3.3306888500167595E+000
       As  2.9567830115467331E+000  4.5215567286655327E+000  1.7744138634901205E+001
       As  1.0665739484138326E+001  1.4095538274242523E+001  5.6316802060268385E+000
       As  3.1593121891053286E+000  1.1581667526264440E+001  9.0752447327743369E+000
       As  7.5471905893093769E+000  7.9984068946947646E+000  1.7194252571613340E+001
       As  1.3694144134733717E+001  5.1670117841458396E-001  8.2757481169987059E+000
       As  1.7303846425103927E+001  1.8377733472943561E+001  1.5452539455709998E+001
       As  3.8460462465183226E-001  1.2979382234237280E+001  4.8806480953081257E+000
       As  1.7650123566996656E+000  5.5640520620481904E-001  1.8425639267104092E+001
       As  1.4997920580553940E+001  1.0441798120080694E+001  8.5915636042225927E+000
       As  1.1166045685166351E+001  1.1079461117789036E+001  7.1133936158837952E-001
       As  9.6069596475907844E+000  1.7670143810794407E+001  1.0505727840380352E+001
       As  1.4066956222171759E+001  1.4556388594917724E+001  4.1902003697048196E+000
       As  4.6667767824562798E+000  1.6479957081883018E+001  1.1778479228570639E+001
       As  1.5655529811399521E+001  1.1628359540014965E+000  9.6922815705094258E+000
       As  1.8741766820410703E+001  1.4134228489516197E+001  5.7113108138305524E+000
       As  4.5181671606541265E+000  1.8998427605771365E+001  1.1340347120155400E+001
       As  1.9396132523104868E+001  1.5249415642196091E+001  1.6876444141320681E+000
       As  8.3119161070665903E+000  1.6451058077870705E+001  5.2156908122310446E+000
       As  3.6311751260596763E+000  2.5372824200247894E+000  1.4899650537089979E+001
       As  2.5953144091122407E+000  7.3609954891653970E+000  1.3611852066909695E+001
       As  2.5094788996334034E+000  8.0746752987728261E+000  1.0636821697886420E+001
       As  4.3223660369048783E-001  1.9469856619585673E+000  1.6647200119171817E+001
       As  1.8239410865041028E+000  1.7958714976977650E+001  1.0009221784055715E+001
       As  1.4172145332051981E+001  7.7636975475639867E+000  1.4732013575308843E+001
       As  1.4135982433424260E+001  1.5760383260788537E+001  2.2535119455330799E+000
       As  1.6973875845314701E+001  2.7222449657302401E+000  1.3665804356269806E+001
       As  6.9834347192499138E+000  4.9524945800542286E-001  1.7022605247957316E+001
       As  3.9411227811597240E+000  1.5256228182200161E+001  1.3534660509634351E+001
       As  1.2973964581061210E+001  4.4877027722574949E+000  4.4329524560656344E+000
       As  1.7160784415805026E+001  8.3787288737575816E-001  1.9020739721842002E+001
       Se  1.9237420470632554E+001  6.9174842592648469E+000  1.0695066572344935E+001
       Se  1.7919996856004190E+001  4.7086067985676561E+000  1.5608154075784622E+001
       Se  1.5777184823057327E+001  7.4565246717677625E-001  1.2585047281799666E+001
       Se  1.7668562829186008E+001  1.7859762650701320E+001  4.8885670422222445E+000
       Se  2.7605055015496269E+000  1.2868544368724248E+001  1.8942443581991611E+001
       Se  9.2772826313041996E+000  1.0466447206136586E+001  7.5550156596223950E+000
       Se  1.3189120536965218E+001  1.1530351053741365E+001  9.5751266824900600E+000
       Se  1.7084395746600446E+001  8.4355806865396499E+000  7.6557348841753736E+000
       Se  5.5663627697226667E+000  1.0475814590432234E+001  8.8130589251187370E+000
       Se  1.0694765369384221E+001  1.9213669175983625E+001  1.6845780950350129E+000
       Se  1.1291065726842971E+001  7.2155632832053360E+000  5.6625968863258596E+000
       Se  1.0204647525892542E+001  1.3451766959566795E+001  8.0463413934056085E+000
       Se  1.6689971693806982E+001  9.5585397641511456E+000  3.3154872676334008E+000
       Se  1.9260358511001620E+001  6.8121729759987772E+000  1.4184293077765435E+001
       Se  1.4233286842560771E+000  1.1201172339514734E+001  1.4106360808411493E+000
       Se  1.5736961689081244E+001  7.3185643774693006E+000  9.7930991323268355E+000
       Se  1.9186378064076749E+001  7.1049624051299949E+000  4.5334957317333213E+000
       Se  6.3853278552180406E+000  7.6090112987383227E+000  2.6506410408879377E+000
       Se  1.9019600393365057E+001  4.3804273964767644E+000  3.5203434531737550E+000
       Se  1.2260187409681716E+001  1.7466918535223634E+001  5.5991004706654763E+000
       Se  5.4642417877893923E+000  5.2121675486299157E-001  9.8004923315416974E+000
       Se  1.7002211135938435E+001  1.5891367093300728E+001  2.5022352458191786E+000
       Se  1.1855356311648514E+001  1.7362721910184348E+001  1.0108733930445357E+000
       Se  1.0545119701865362E+000  7.2292457466229445E+000  8.5451891373823567E+000
       Se  8.5875090710310289E+000  1.1662119126768058E+001  1.4399489396371571E+001
       Se  1.0442792177066693E+001  7.1342063890586314E+000  1.3009967225584875E+001
       Se  1.7551403124502718E+000  8.8290753640766830E+000  3.5801330476859543E+000
       Se  8.3571862773015260E-001  1.6434322061361095E-001  5.8641742523422993E+000
       Se  1.9388111108498880E+001  1.2107144847565623E+001  2.7180540158826716E+000
       Se  3.7374031897239610E+000  3.4593244608049583E+000  1.9904608048535368E+000
       Se  1.8905084114342561E+001  1.5825035287112019E+000  7.0929156183955078E+000
       Se  5.2492574917906580E+000  9.4650754463944367E+000  1.1246220121173509E-001
       Se  1.1067726029349290E+001  1.5218642040691824E+001  1.6849024523086374E+001
       Se  8.4464410799255099E+000  1.3176404559795960E+000  1.8223361147610702E+000
       Se  1.9610844688738876E+001  3.3845435571873956E+000  1.9805183678171637E+001
       Se  2.3565509457135301E+000  1.7243701142436311E+001  7.6889727576010367E+000
       Se  5.7258550293434984E+000  1.5674196454612769E+001  9.7278394399619839E-001
       Se  6.4637055721783589E+000  1.5170203251776101E+001  8.2805759763520221E+000
       Se  1.5129002736549614E+001  4.4988569476275240E+000  5.7229282989003505E-001
       Se  1.8361267161648946E+001  8.9567643212953385E+000  1.7946928892576633E+001
       Se  1.0114500809806989E+001  2.7081711598501443E+000  1.9077982532562807E+001
       Se  4.7648267350926634E+000  8.6671722081657627E+000  6.1698268580903104E+000
       Se  1.4203850114914919E+001  5.7547539340356240E+000  1.9075834476549289E+001
       Se  1.2898623864666463E+000  5.4671484928940117E+000  1.9489379425455923E+001
       Se  1.3264756337436220E+001  8.7332964805414015E+000  5.9593911451521242E-001
       Se  1.1548271433498993E+001  1.9354049253709665E+001  8.8039923200997219E+000
       Se  1.5149227875687322E+001  1.6399496695043013E+001  7.4538084750430631E+000
       Se  9.3169326097174510E-001  1.7150018295138281E+001  4.6536257112035939E-001
       Se  2.1380321967388038E+000  2.7685788102336071E+000  1.9173949437908952E+001
       Se  1.3128782170879067E+001  1.1066996936707442E+001  3.6720464075221337E+000
       Se  1.3280851472894364E+001  1.1466384883838208E+001  1.7027505629231077E+000
       Se  3.8846463020486599E+000  1.9040431343994740E+001  1.6724737472508533E+001
       Se  1.3924338561187549E+001  1.3367540997150066E+001  1.9127435838788895E+001
       Se  5.0682008676160022E+000  1.7437466502094377E+001  3.0108363732342411E+000
       Se  6.6824580115786629E+000  1.4168273563672638E+001  1.2967504435298133E+001
       Se  2.2599508831376949E+000  9.8533331008295511E-001  9.9385789814956542E+000
       Se  6.4811927562885039E+000  1.0899705985438862E+001  1.4341049962919355E+001
       Se  9.0640454941754545E+000  5.4322865796440887E+000  1.2160410013838773E+001
     &END COORD
     &VELOCITY
         4.8546427667159342E-004  1.8765729177112512E-004 -3.5002797356031243E-004
         3.6203938105466718E-004  6.0287861617018022E-005 -1.0859166344214495E-004
         4.9069759522133284E-004 -1.1169259248013288E-004  7.1079371343018403E-005
         3.0770044919782650E-004 -2.3505220199005858E-004  2.8975464418153248E-004
         1.7858702053728329E-004 -6.9109175223433655E-005  1.3613033049419864E-004
         3.9087229378020319E-004 -1.2091913279481910E-004 -1.1701295080674133E-004
         1.2103554738620870E-004 -4.2167325342213630E-005 -7.6630303838167194E-004
        -1.3110654952628120E-004 -2.5723578769476551E-004 -4.0680923556510459E-004
        -2.2915405317130874E-004  1.8813913372061589E-004 -1.6843202013366049E-004
        -1.7542735579730782E-004  2.9433860785150768E-004  3.1515000134534212E-004
         4.7114602773004420E-004 -1.6237762162782634E-004 -6.6326224080836773E-005
        -4.6812208245164682E-004  1.0511564399407780E-004  1.8173624562154822E-005
         5.0178451617580904E-004  2.2773611557037754E-004  7.5245533307757761E-006
        -1.9409017320431204E-004  1.3040747292875538E-004  1.2477417058098333E-004
        -8.0326467193224282E-005  1.3768777356539696E-004 -7.2619081574975145E-005
         8.4420692356637321E-005 -1.4924595965642512E-004 -4.0027289935568906E-004
        -3.0251698660632649E-004 -4.0233978020411510E-005  3.3859690979031707E-004
         2.4434268482295034E-004  2.3966688483523912E-005  8.2570956333595963E-005
         1.5878419784477288E-004  8.8946305165758235E-005 -1.3217882958706779E-004
        -1.1207819618626486E-004  2.2575492422233920E-004  2.0240425130869228E-005
         1.4146263839740736E-004 -3.3429690770060900E-004  1.8937120680683614E-004
        -3.2169495639000156E-004 -1.1606830724112656E-004  9.5914048713260236E-006
         1.4919557590837556E-004  5.0922410328156460E-006 -1.2249018113400989E-004
        -2.1110157402094514E-004  4.3187376146608890E-004 -1.0069974222569415E-004
        -5.7973302771153362E-004 -4.6184342027732377E-004  3.5687466931792560E-004
         1.8748299764765450E-004 -6.4535849665011625E-005  2.5307098355827512E-004
        -1.2855460392369088E-005 -1.3722815599396547E-004  3.1045778575112901E-005
        -1.9832757947446818E-004  2.1871011409348527E-005 -2.6411312293664444E-004
        -3.0212079814355365E-004 -9.7303865154865852E-005  2.6201899080237569E-005
         5.5878620847711677E-005 -1.2931954563231862E-004  1.9244135265306594E-004
        -9.4168981721024674E-005 -1.1601296521400013E-003 -1.4516340823041767E-004
        -1.2450608523876733E-004  1.0547251978494127E-005  4.3412289312914450E-005
         2.3358066668971276E-004  6.3244370617726659E-005  1.6321177299145277E-004
         6.4889968625840989E-005 -8.9983492897229266E-005 -1.6755905595476329E-005
         6.0046912373588065E-005 -1.0309234336584861E-005  1.3096033535849478E-004
         2.1975377676467284E-004 -8.8607028118899028E-005 -1.1472911827535593E-004
        -2.5396281414575498E-004  2.7520693872259863E-004  2.0552601844547268E-005
         9.4081014861626099E-005  1.6117459334659610E-004 -8.7053432125762753E-005
         1.3985429268747974E-004  3.8335737137636749E-005 -1.1464194419071285E-004
        -7.1209491636018966E-005  2.5384976669580191E-005 -2.9145371710792507E-004
        -7.9769143159395500E-005  6.9581099693629799E-005 -1.1979368896408856E-004
        -7.6191712106960207E-005 -2.5811578907585788E-004 -1.2774337301641708E-004
        -2.8649634795304665E-004 -1.7706385787071152E-004 -5.1931942683553967E-005
         6.5898372423473718E-005  2.6801997507854637E-005  7.2477844516000067E-006
         2.1780583841603485E-004 -3.6508275554254609E-004 -2.5050436732651732E-004
        -2.6973534792422909E-004 -1.3909553393191281E-004  1.5813425641369170E-004
        -4.4055355039082286E-004  1.1912491304118229E-004 -2.9284102088395023E-004
         1.8380338288520205E-004 -8.7627638849753731E-005 -5.5350470361313250E-005
        -3.5176771662164593E-004 -3.2046028665993120E-004  2.0610280558568599E-004
         6.6578970140913755E-005 -1.4504644472992340E-004 -3.9744929234059826E-004
         1.1604443489516601E-004 -8.9917490942597281E-007  2.7188487711082726E-005
         1.5258438365732869E-004 -2.7512450094724930E-004  1.1774972501100318E-004
        -1.0878804806575819E-004  2.4102105001280150E-004  2.5570344562626427E-004
         2.9566908086685090E-004  2.4324209520035759E-004 -2.7919459190524213E-004
        -4.7220298068456587E-005 -1.7059783067275037E-004 -3.7573499633098242E-004
        -2.2467912393551892E-004  9.0207300896999183E-005 -1.4864407546419684E-004
         1.4782772316021252E-004  3.3234781612250913E-004  7.2016730671231699E-005
         1.6409055546890469E-004 -2.3117395994124110E-004  1.8481814386998619E-004
        -9.2306602025691255E-005 -2.8347567158960927E-004  3.0410185415925643E-004
         6.2722004861715794E-005  6.2026504788106502E-005  1.3058427508945625E-004
        -1.8347933777731681E-004  1.5272797450308220E-004  1.0967559176126993E-004
         9.0631331214990107E-006 -3.9159956489404772E-005  5.0986980796690479E-004
        -1.0931444888322777E-004  5.0781913135399211E-005 -4.6302424068354554E-005
        -1.3772744004856397E-004 -3.9907855550943845E-004 -6.5613913284398747E-005
        -2.2801814318886576E-004  6.7465715645934283E-005 -1.1682794712500149E-004
        -3.8136614478666574E-004  6.0851070460788392E-005  3.5714581483878988E-004
         1.7617893842167471E-004 -6.5544712174585643E-005  4.3556153320487289E-005
         1.9628737382959186E-004  2.6025948038789659E-005  9.1357390480894187E-005
         3.8303054630667690E-004 -2.2921917774484132E-004 -1.9816821826933756E-004
         1.7665746434226674E-004 -1.5581482965677847E-004 -9.5511958441346431E-005
        -2.3071608660879572E-004  1.6287607694836652E-004  5.1876950587201581E-004
        -1.9456702654845507E-004  3.7118719119648267E-004  7.7641091647321985E-004
        -6.6832645309361678E-004 -1.0440619024861545E-004  1.4091940506234666E-004
        -1.1933600919490844E-004  2.9905131706545814E-004  1.4489297002864853E-004
        -1.4992784162674324E-004  2.3239129758199521E-004  2.3790747191735294E-004
         5.8831659972139221E-005 -6.0601847450079801E-005 -1.2305990390328519E-004
         2.5920501313614054E-004 -6.3552675752912295E-004  5.9660425358541052E-004
         1.9542914884457384E-005  1.1760933960407773E-004 -2.0237256860799053E-004
        -1.8572930356137559E-004 -3.4437869401736441E-004 -6.3037891503568938E-005
         5.3786436663432141E-005  2.4488784657524941E-004 -2.7403649715358389E-005
         1.2927232612901235E-004 -1.0090895819956684E-003 -1.0167950902221848E-003
        -6.6486957745633032E-005  5.7741921000521420E-004 -6.5752088413759661E-005
        -5.6651815433755187E-004  1.5255802043944464E-003  7.5412163616513019E-004
        -4.0298768886134096E-004 -1.4338624041302658E-004  1.7025638610739362E-004
        -1.3621330438565610E-004  4.7073860416530363E-005 -2.5379438728567337E-004
         3.2667300432602812E-004  5.3739508262619189E-004 -2.5227735795468588E-004
         7.7364797047742913E-004 -4.1293260325207175E-004  1.1428725576562050E-004
         5.0170767625914448E-005 -2.1589153122003924E-004  9.7726019089113187E-004
        -3.2277620425501160E-004 -8.1319043347637078E-004  2.1733796910349603E-004
         7.0640343238701704E-005  2.4808409346827330E-004  5.5581858059909294E-005
         2.6888065857856661E-004  9.9229592666577409E-004 -1.3858739709902380E-003
         2.6121962467522185E-004 -3.1709803489549224E-004 -2.9566757154771492E-004
        -3.2162958359385990E-004  7.0476864759198447E-005 -1.0478108533126507E-004
         1.6617080065727918E-004  1.1351633356774160E-003 -1.1709164182066842E-004
        -3.4577367667377742E-005  1.8684434837840461E-005  1.0422749982418215E-004
         3.4629639939430881E-004  3.8825275070842837E-004  1.3898077943362414E-004
     &END VELOCITY
     &KIND "As"
       BASIS_SET "DZVP-MOLOPT-SR-GTH"
       POTENTIAL "GTH-PBE"
       &POTENTIAL
         2 3
           5.2000000000000002E-001 0
         3
           4.5554957000000001E-001 3  5.5206732699999996E+000  3.5122199999999999E-002 -1.0610823899999999E+000
                                                              -1.7711931999999999E+000  2.7397029499999999E+000
                                                                                       -2.1745717999999998E+000
           5.5460556999999999E-001 2  1.0217915600000000E+000  6.2920825999999996E-001
                                                              -7.4448924999999999E-001
           7.0368872000000005E-001 1  3.1479504000000003E-001
         # Potential name: GTH-PBE for element symbol: AS
         # Potential read from the potential filename: GTH_POTENTIALS
       &END POTENTIAL
     &END KIND
     &KIND "Se"
       BASIS_SET "DZVP-MOLOPT-SR-GTH"
       POTENTIAL "GTH-PBE"
       &POTENTIAL
         2 4
           5.1000000000000001E-001 0
         3
           4.3246004999999998E-001 3  6.5181098999999998E+000 -2.2271638999999999E-001 -1.1961289900000001E+000
                                                              -1.6579783299999999E+000  3.0883917799999998E+000
                                                                                       -2.4513349799999999E+000
           4.7049162000000000E-001 2  2.2812622299999998E+000  3.6533528999999998E-001
                                                              -4.3227054999999998E-001
           6.2560033999999998E-001 1  4.3979948000000002E-001
         # Potential name: GTH-PBE for element symbol: SE
         # Potential read from the potential filename: GTH_POTENTIALS
       &END POTENTIAL
     &END KIND
     &TOPOLOGY
       COORD_FILE_NAME inputs/as2se3_96_seed.xyz
       COORD_FILE_FORMAT XYZ
       NUMBER_OF_ATOMS 96
       MULTIPLE_UNIT_CELL 1 1 1
     &END TOPOLOGY
   &END SUBSYS
 &END FORCE_EVAL
