 # Version information for this restart file 
 # current date 2025-09-30 08:57:18.063
 # current working dir /Users/jdmusgraves/GitHub/local_shakedown_kit
 # Program compiled at                                       2025-01-01 12:26:53
 # Program compiled on                                                          
 # Program compiled for                                                    arm64
 # Source code revision number                                                  
 &GLOBAL
   PRINT_LEVEL LOW
   PROJECT_NAME "md_smoke_compat"
   RUN_TYPE MD
 &END GLOBAL
 &MOTION
   &MD
     ENSEMBLE NVT
     STEPS 500
     TIMESTEP  4.9999999999999994E-001
     STEP_START_VAL 300
     TIME_START_VAL  1.5000000000000011E+002
     ECONS_START_VAL -7.7983049204072381E+002
     TEMPERATURE  3.0000000000000000E+002
     &THERMOSTAT
       TYPE CSVR
       &CSVR
         TIMECON  9.9999999999999989E+002
         &THERMOSTAT_ENERGY
             3.2848494674692158E-001
         &END THERMOSTAT_ENERGY
         &RNG_INIT
 Wiener process for Thermostat # 1        1 F T F  -9.5594393955696966E-01        3930908438.0        3903618217.0        2515132940.0         311777737.0        2606359998.0        1758953814.0             12345.0             12345.0             12345.0             12345.0             12345.0             12345.0             12345.0             12345.0             12345.0             12345.0             12345.0             12345.0
         &END RNG_INIT
       &END CSVR
     &END THERMOSTAT
     &AVERAGES T
       &RESTART_AVERAGES
         ITIMES_START 1
         AVECPU  2.4161819847666669E+002
         AVEHUGONIOT  0.0000000000000000E+000
         AVETEMP_BARO  0.0000000000000000E+000
         AVEPOT -7.8249659317130568E+002
         AVEKIN  2.5050439063042038E+000
         AVETEMP  5.5510832104886013E+003
         AVEKIN_QM  0.0000000000000000E+000
         AVETEMP_QM  0.0000000000000000E+000
         AVEVOL  5.3986676664719977E+004
         AVECELL_A  3.7794522657712875E+001
         AVECELL_B  3.7794522657712875E+001
         AVECELL_C  3.7794522657712875E+001
         AVEALPHA  9.0000000000000000E+001
         AVEBETA  9.0000000000000000E+001
         AVEGAMMA  9.0000000000000000E+001
         AVE_ECONS -6.0661291076404972E+001
         AVE_PRESS  0.0000000000000000E+000
         AVE_PXX  0.0000000000000000E+000
       &END RESTART_AVERAGES
     &END AVERAGES
   &END MD
   &PRINT
     &TRAJECTORY SILENT
       FILENAME md_smoke_compat-pos-1.xyz
       FORMAT XMOL
       &EACH
         MD 5
       &END EACH
     &END TRAJECTORY
     &VELOCITIES SILENT
       FILENAME md_smoke_compat-vel-1.xyz
       &EACH
         MD 5
       &END EACH
     &END VELOCITIES
   &END PRINT
 &END MOTION
 &FORCE_EVAL
   METHOD QS
   &DFT
     BASIS_SET_FILE_NAME BASIS_MOLOPT
     POTENTIAL_FILE_NAME GTH_POTENTIALS
     &SCF
       MAX_SCF 120
       EPS_SCF  9.9999999999999995E-007
       SCF_GUESS ATOMIC
       IGNORE_CONVERGENCE_FAILURE T
       &OT T
         MINIMIZER DIIS
         LINESEARCH 2PNT
         PRECONDITIONER FULL_SINGLE_INVERSE
       &END OT
     &END SCF
     &QS
       EPS_DEFAULT  9.9999999999999998E-013
       EXTRAPOLATION ASPC
       EXTRAPOLATION_ORDER 3
     &END QS
     &MGRID
       CUTOFF  5.0000000000000000E+002
       REL_CUTOFF  6.0000000000000000E+001
     &END MGRID
     &XC
       DENSITY_CUTOFF  1.0000000000000000E-010
       GRADIENT_CUTOFF  1.0000000000000000E-010
       TAU_CUTOFF  1.0000000000000000E-010
       &XC_FUNCTIONAL NO_SHORTCUT
         &PBE T
         &END PBE
       &END XC_FUNCTIONAL
       &VDW_POTENTIAL
         POTENTIAL_TYPE PAIR_POTENTIAL
         &PAIR_POTENTIAL
           R_CUTOFF  1.6000000000000000E+001
           TYPE DFTD3
           PARAMETER_FILE_NAME dftd3.dat
           REFERENCE_FUNCTIONAL "PBE"
         &END PAIR_POTENTIAL
       &END VDW_POTENTIAL
     &END XC
   &END DFT
   &SUBSYS
     &CELL
       A  2.0000000000000004E+001  0.0000000000000000E+000  0.0000000000000000E+000
       B  0.0000000000000000E+000  2.0000000000000004E+001  0.0000000000000000E+000
       C  0.0000000000000000E+000  0.0000000000000000E+000  2.0000000000000004E+001
       MULTIPLE_UNIT_CELL 1 1 1
     &END CELL
     &COORD
       As  9.6299619765424342E+000  7.5179887790641793E+000  7.8578100999729710E+000
       As  1.5302725198365311E+001  1.8708650708371795E+001  1.3883195333891010E+001
       As  5.5888152773369386E+000  8.7367504879351721E+000  1.6740521682948074E+001
       As  2.0423257991984737E+001  1.0814106274998091E+001  1.7005961126754816E+001
       As  3.6177454626192800E+000  2.5591111436501324E-001  1.4133509042345445E+001
       As  9.5906781268396806E+000  1.6433857115154748E+001  2.0192074185720958E+001
       As  9.1140864423093557E+000  1.7878558647436199E-001  1.7374694638820198E+001
       As  5.8938926945514742E+000  2.7274866850421136E+000  3.2859356493030218E+000
       As  1.8001115084453563E+000  4.3880358498111276E+000  1.7970883762419444E+001
       As  1.0646263235352849E+001  1.5103406282588390E+001  5.6431459762967844E+000
       As  3.2398849193471904E+000  1.1655069297367515E+001  9.3713908829196733E+000
       As  7.3023499132623266E+000  8.1127738864889292E+000  1.7707304264329476E+001
       As  1.4222923489730219E+001  6.0825203507341541E-001  8.2313584900661496E+000
       As  1.6186411683667714E+001  1.9368317263084901E+001  1.5980642036628224E+001
       As  5.3221586390364473E-001  1.3279060979638244E+001  4.8222643081014249E+000
       As  1.6785678790524536E+000 -4.0779965739401181E-001  1.7801426918014851E+001
       As  1.5220643348361609E+001  9.7899557450634198E+000  9.2598930540981499E+000
       As  1.0875962700077212E+001  1.1046443407108606E+001  4.4676928665890675E-001
       As  9.7070480189431620E+000  1.7442427422061883E+001  1.0512318296574112E+001
       As  1.3671917446770824E+001  1.5266429109090994E+001  4.6028529226563499E+000
       As  5.1861895211832296E+000  1.6078258147252864E+001  1.1384110564685246E+001
       As  1.5403736541245092E+001  1.1091566012642442E+000  1.0028850828463410E+001
       As  1.8744847973733954E+001  1.4371098650285244E+001  5.4925992272149040E+000
       As  3.2240290987799884E+000  2.0068491542239684E+001  1.1510378189672135E+001
       As  1.8724552392188933E+001  1.4352423031909979E+001  1.9857679532201138E+000
       As  8.4752335098036564E+000  1.6299101546517299E+001  6.3897177736048372E+000
       As  3.4117020617912655E+000  2.3266503333120769E+000  1.4923350762577867E+001
       As  1.0928883776848597E+000  6.9447141998584110E+000  1.3282350739317524E+001
       As  2.7170785945250389E+000  8.5296976850841091E+000  1.0873883535797768E+001
       As  7.9546401126924648E-001  1.9371745974978374E+000  1.7544734356516372E+001
       As  2.0409910286291413E+000  1.5641480875220580E+001  9.5407960982525957E+000
       As  1.3158213770469260E+001  7.4464147689386522E+000  1.4543481386781009E+001
       As  1.4626745011339628E+001  1.6001336822703081E+001  2.4487512922179313E+000
       As  1.7446617276075983E+001  2.4749894930267340E+000  1.3760208972222856E+001
       As  6.3378312087369606E+000  3.0753184887113139E-001  1.7068654993143351E+001
       As  3.9519498499523529E+000  1.4891106738174091E+001  1.4044030993119941E+001
       As  1.2668245645184463E+001  4.6886062020832391E+000  4.2399609886027196E+000
       As  1.7979026528063144E+001  1.0803411177139937E+000  1.8098369185756848E+001
       Se  1.8628817893864344E+001  6.8998268152226396E+000  1.0830420820210637E+001
       Se  1.7652448770070549E+001  4.6861545737366148E+000  1.4186055906043361E+001
       Se  1.5430702097555924E+001  1.5538769057554698E+000  1.2375007910825268E+001
       Se  1.7345544819712284E+001  1.7178430120629006E+001  5.3118705950115439E+000
       Se  2.0855157568584026E+000  1.2571729365264673E+001  1.9619897815863776E+001
       Se  9.4880250268804200E+000  1.0306897127200905E+001  7.4280869786401125E+000
       Se  1.2938443214491592E+001  1.0899968700725411E+001  9.1486156733965061E+000
       Se  1.6701861926448579E+001  8.4573246044609967E+000  6.6724358776758086E+000
       Se  5.7160255849987811E+000  1.0302533910585268E+001  7.8431235074223160E+000
       Se  1.0948544803779969E+001  1.9308899824135359E+001  1.6268749596705667E+000
       Se  1.1174365522581878E+001  7.0740148934946623E+000  5.0898591673514284E+000
       Se  1.0222171568108870E+001  1.2786040795080204E+001  7.5572745423088401E+000
       Se  1.7354000831578389E+001  9.4100398416277820E+000  3.5704796583132987E+000
       Se  2.0002225851662509E+001  5.9521156516278095E+000  1.4485356839003760E+001
       Se  1.5767786308857479E+000  1.0918403753630390E+001  1.9681763740108535E+000
       Se  1.6450502076220914E+001  7.7762846241648216E+000  1.0035488942561821E+001
       Se  1.9070790272858556E+001  8.1313325264860268E+000  3.3479506329242312E+000
       Se  5.2739608017233222E+000  8.0628033710356597E+000  2.5428861957066182E+000
       Se  1.9482897248929284E+001  4.7756672041673971E+000  3.5458579459049613E+000
       Se  1.2091795885195362E+001  1.6293031748298809E+001  6.3188213611344715E+000
       Se  5.0736764579511666E+000  3.0747338097836796E-001  1.0182897162718934E+001
       Se  1.6947630654131647E+001  1.6159912435281363E+001  2.5771091669056871E+000
       Se  1.1310789812763325E+001  1.7154965219006829E+001  8.7139943300910350E-001
       Se  9.9897244299215537E-001  6.9606443703297955E+000  9.3868479988988618E+000
       Se  8.2221414629527185E+000  1.1842975767765484E+001  1.4342395922960943E+001
       Se  1.1212504144375464E+001  7.1557250281982512E+000  1.3494779888421935E+001
       Se  9.6140948981774521E-001  9.1170772815194248E+000  3.0863593067042214E+000
       Se  6.5774559881261763E-001 -8.5693341525775868E-001  6.3824603755747207E+000
       Se  1.9055921761303804E+001  1.2119557747844981E+001  2.9355927522469467E+000
       Se  4.2242103629296119E+000  3.2787529012436032E+000  1.4449667489046925E+000
       Se  1.9204200848259440E+001  1.7834521876451472E+000  7.2615622051534752E+000
       Se  6.2247061928689718E+000  8.7713896446243815E+000 -5.6533468595396663E-001
       Se  1.2167324293641551E+001  1.4998984957316612E+001  1.7075293738890590E+001
       Se  8.5183381867226355E+000  1.6830735438387820E+000  2.9886485280143411E+000
       Se  1.7767502840733233E+001  3.4635824246817482E+000  2.0251015617642867E+001
       Se  1.9606241485501399E+000  1.7985225756603565E+001  8.1235088449256114E+000
       Se  5.4726928150118965E+000  1.5675432382246568E+001  7.3443348606167669E-001
       Se  6.7302825020245374E+000  1.5159944196620298E+001  7.8542389605975007E+000
       Se  1.5316439770879654E+001  3.4135406955387060E+000  1.6615955088826137E-001
       Se  1.8766286819926933E+001  9.7065165524728201E+000  1.7296143749580374E+001
       Se  9.8664313765604401E+000  1.7852412568440188E+000  1.9327872599377066E+001
       Se  4.7279102585302484E+000  9.1153288733610456E+000  5.5610388816749410E+000
       Se  1.5159958035077715E+001  2.5741679340211814E+000  1.8334094107647868E+001
       Se  1.2677703615591664E+000  6.7802426866041321E+000  1.8954011126845277E+001
       Se  1.1164960255054778E+001  9.0512950885694128E+000  6.0635177996628864E-001
       Se  1.0986096710885683E+001  1.9453890447163449E+001  8.5407586515230225E+000
       Se  1.5505139323712237E+001  1.6811567935288981E+001  6.1019884323733695E+000
       Se  1.2976583817071643E+000  1.8075496903200591E+001  3.4670410519534504E-002
       Se  4.1662578858530965E+000  2.1354807361077599E+000  1.9646057261096331E+001
       Se  1.3437146580707900E+001  1.0886548852082777E+001  5.7114812310146705E+000
       Se  1.4200471198911108E+001  1.2883860709886385E+001  5.0598566505909659E+000
       Se  4.4494814945795529E+000  2.0022780452436002E+001  1.6791104935198803E+001
       Se  1.3628014246369741E+001  1.6054342427145031E+001  1.5815598892347323E+001
       Se  5.8234966478631236E+000  1.7169066963971346E+001  3.1251250425419599E+000
       Se  6.0915393954033075E+000  1.4132578595565411E+001  1.2437494347551864E+001
       Se  3.2053542506936128E+000  2.9622364477768812E+000  9.9293998301557558E+000
       Se  6.2670657040009701E+000  1.0830122897102040E+001  1.4632940223665267E+001
       Se  9.5840096216825081E+000  5.6904755796164457E+000  1.2209135103505576E+001
     &END COORD
     &VELOCITY
         7.7538807091504118E-005  5.5760175699352951E-004  1.2953655737545387E-004
         1.2065728675550101E-004 -6.8210377080760057E-004 -4.5668171761501305E-004
         9.7590119838161129E-005  3.0640551796813382E-004 -1.2046392773767870E-004
         9.0999505150202728E-004  9.0465108151594243E-005 -5.2425337422724590E-004
         1.2490893603476404E-004 -1.4635993965684326E-004  4.2801346499175285E-005
         1.3370685581326621E-005  2.6866137548072421E-004  7.1144237161596387E-004
         3.1744323731706009E-004  5.5574426530295811E-005 -3.3424039375542472E-004
         3.6236825826002134E-004 -1.1231286804951503E-004  4.2431013484612955E-004
        -4.1682415758899832E-004 -1.4673155802533087E-004  2.1362615136589740E-004
         1.1144611214115646E-004 -2.8357681843742933E-004 -2.8495247886129149E-004
         5.3841958387751763E-005 -1.4806819155345133E-004  4.2844016911126415E-005
        -3.8740202595072471E-005 -5.0215124788931749E-006  3.7993623064574116E-004
         1.2720735672253509E-004 -7.3287386516940109E-005  3.8418488449633195E-004
        -3.2157955711092273E-005  5.4090941826477222E-004  1.0238055775600228E-003
         1.5002810007549818E-004  6.0257562760661594E-005 -3.3615640332430237E-005
        -6.0785489199929931E-004 -4.7659858305250093E-004  3.5130587981662862E-004
        -4.8357148988366150E-005  3.6424936325277622E-005  6.6924543949417285E-007
        -1.7768633523516287E-005 -1.9760660931230961E-004 -5.5160770030839223E-005
         2.6623359760035668E-005 -1.3874885812012798E-005 -9.3736362862781894E-005
         5.9085495639105293E-005  2.4341428660228575E-004  1.2677449377730980E-004
        -1.0783098146543134E-004 -1.8316340677991842E-004 -1.0566871653075888E-005
        -8.9076159628973653E-005  2.7036372717119466E-005 -2.3589980394877615E-004
        -1.5921364359322080E-004  9.9023006147489449E-005 -4.3771712948074917E-005
        -2.8661061715146879E-004  6.8345483319744767E-004 -2.3757482882012614E-004
        -4.9400002579097398E-005 -4.8708993757161031E-004  4.4095343866820628E-005
         4.1066515643340285E-004  7.1559849199296006E-004 -2.1305621317415659E-004
        -1.9179060605062571E-004 -1.5162304966023454E-004 -8.2159462396334611E-005
        -4.2923577642252873E-004 -1.2610010792839550E-004  9.2937332368752971E-005
         1.8666714384354776E-004  3.8018754231513679E-004 -4.3872330475668920E-004
         1.0166803638846992E-004  4.5489848059176226E-005  4.2049945136312012E-004
         2.6873274681766092E-004 -4.1206475576456911E-004 -4.6026199474908926E-004
        -9.0620821637352742E-004 -3.1081810769976412E-004 -3.4620747216914001E-004
         1.9710041275430187E-004  6.8608561021552827E-005  1.1868679653668800E-004
         2.1064147709775848E-004 -6.9553501339497561E-004 -5.8660502025566081E-005
         4.4171704574564886E-004  1.8136402104190521E-005 -2.1635916042273857E-005
         6.2242701725282135E-005  6.4549785236757976E-005 -9.7685305425892067E-005
         1.2193005191380869E-004 -2.8319055989329390E-004 -2.3430156886304534E-004
         3.1783684347679616E-004 -2.8142218774996518E-004 -7.6404706162784672E-004
        -4.1716818270818684E-004 -2.1060420571764855E-005  4.8140456137732142E-006
        -3.2606398456859497E-004  3.1669374577004131E-004 -4.0494951529993091E-004
        -4.9366898098507727E-005  7.2065025199659881E-004 -3.5870031996959026E-004
        -6.1987791821795375E-005  3.1333832778976888E-005  7.1924901385122251E-004
         1.1435068962707006E-005 -8.9094773499359613E-005  8.3602686487258308E-004
        -1.7865139899629550E-004 -7.5974889965842477E-004 -1.1670117203724455E-004
         2.3500050002109744E-004 -5.3493279582153932E-004 -1.8634521085544891E-004
        -2.0876498634647101E-004  2.1773410948967189E-004 -4.4949353499036410E-004
         1.4120896571346236E-004  1.8731602073842569E-004  3.5265614972450725E-005
         1.0566162358223877E-004 -1.1106344736048402E-004 -8.8901605576578203E-005
        -2.2101207138931422E-004  3.9402094777088941E-004 -6.6442663541620113E-005
         2.1800995791134326E-004  2.8295493814247042E-004 -5.4578141318675991E-006
         3.3435476481900737E-004 -1.7566020092798194E-004  2.5721010305687381E-004
         3.3213407876193739E-004 -3.0884686893482475E-004  3.2554931057954630E-004
         7.0373669698048575E-005 -1.4757764531588382E-004 -7.5684766381490959E-005
         3.6595699744735010E-004 -8.6053665181647984E-006  2.0114237104112566E-004
        -5.0363240869780450E-004  5.2563542426413900E-004 -3.4853129477274193E-004
        -4.2772285679304228E-004 -8.7852938534860944E-006  4.0006430633799365E-004
         1.5037852199746481E-004  1.3003464104728226E-005 -1.0684606000012663E-004
        -6.7427582183577912E-004 -1.4206221396844909E-004  2.9102635392066291E-004
        -5.8210177404221814E-004  1.9749071777296760E-005  3.8168554149917904E-004
        -3.0047970397178671E-004 -7.8549662612924690E-005 -4.7785982051570591E-004
        -2.2575454453458251E-004  1.4174173694977757E-004 -1.3147371955137571E-005
        -7.5956844324037934E-005  3.5422786427277846E-005  3.8078163521073640E-004
        -2.3703518458021458E-004  1.4875795375363639E-005  2.0983148732471935E-005
         4.0241639562060919E-004 -9.1607010534194575E-005  1.8280531417863026E-004
         1.7943707886859081E-004  2.2917783946510524E-004 -1.9693309581280386E-004
        -5.9030302664071129E-005 -3.8371823064755787E-004  4.7679526984407728E-004
        -2.3335724823254607E-004  2.4564421000833927E-004  1.9278129967972786E-004
        -6.7519339338533850E-005  3.8276637163258195E-004  1.5625069765000301E-004
         2.3887051954137181E-004 -1.6441785808164400E-004  2.4553961581702118E-005
         3.5645567190175715E-004 -4.6233064712599180E-005 -7.8279596323662163E-004
         9.7119309127244964E-004 -1.9884935254928170E-004 -2.2002380027719465E-004
        -3.4070912488930009E-004  1.9146324950781329E-004  2.8033444245619037E-004
        -5.4725447626492285E-004  5.1142025773414528E-004  5.5920251106233564E-004
        -2.2508554116532707E-004  6.9305870385774360E-005  3.0969050852709478E-004
         1.1090085720516855E-005  2.1546239375343346E-004  2.2558340468466689E-004
        -6.6701364080117866E-004 -4.1712323968929417E-004  5.6938892497470663E-004
         1.8414438030909372E-004 -2.2228340397720074E-004 -4.7331349660797002E-004
        -8.8757666697829004E-004 -5.0829094715420901E-004 -1.1641222376387276E-005
        -4.7102717400427147E-005 -4.9462769426055549E-004  1.4378329641059105E-005
        -1.2422865645612128E-004 -5.3641595502568376E-005 -6.1411764156527819E-004
         3.9071813625076064E-004 -1.4437248861461378E-003 -9.9176803242807988E-005
        -2.8801878111169150E-005  2.6085860018420137E-004 -2.6119829285485243E-004
        -9.6242566512149319E-004 -7.7118860920838907E-005 -2.4044004541024923E-004
        -9.2598854431835462E-005 -3.9490860047170224E-006 -1.2587468468317482E-004
         9.3126215605358756E-004  1.0023038105722264E-004 -4.8080222428201100E-004
         1.6766734227342833E-004  5.0584190199150063E-004 -4.0661434938559112E-004
         5.7739144175079059E-004 -5.3506104950122948E-004 -6.7265424438677835E-004
         1.9884870325293343E-004  1.4720836628943372E-004  4.2821372127508457E-004
         4.1903856971553017E-004  7.3845323606609563E-004  1.8214940501737674E-003
        -1.9252184438373350E-004  2.0125639950044970E-004 -2.2512098296748658E-004
        -5.6442992379629844E-004  1.0442295937828469E-003 -1.0787690167227018E-003
         2.3973540529427254E-004 -2.9471686416461431E-004 -2.5787569592490057E-004
        -1.7010470080701165E-004 -9.8016859434535276E-005 -2.1495485419757864E-004
         5.4020894597759728E-004  3.0298219066263654E-004  1.3531144147849357E-004
        -8.8861699978576717E-005 -1.0253496375157193E-004  1.7546396537307301E-004
         6.0160450189205878E-004  3.8038206503077945E-004  2.6277533439555820E-004
     &END VELOCITY
     &KIND "As"
       BASIS_SET "DZVP-MOLOPT-SR-GTH"
       POTENTIAL "GTH-PBE"
       &POTENTIAL
         2 3
           5.2000000000000002E-001 0
         3
           4.5554957000000001E-001 3  5.5206732699999996E+000  3.5122199999999999E-002 -1.0610823899999999E+000
                                                              -1.7711931999999999E+000  2.7397029499999999E+000
                                                                                       -2.1745717999999998E+000
           5.5460556999999999E-001 2  1.0217915600000000E+000  6.2920825999999996E-001
                                                              -7.4448924999999999E-001
           7.0368872000000005E-001 1  3.1479504000000003E-001
         # Potential name: GTH-PBE for element symbol: AS
         # Potential read from the potential filename: GTH_POTENTIALS
       &END POTENTIAL
     &END KIND
     &KIND "Se"
       BASIS_SET "DZVP-MOLOPT-SR-GTH"
       POTENTIAL "GTH-PBE"
       &POTENTIAL
         2 4
           5.1000000000000001E-001 0
         3
           4.3246004999999998E-001 3  6.5181098999999998E+000 -2.2271638999999999E-001 -1.1961289900000001E+000
                                                              -1.6579783299999999E+000  3.0883917799999998E+000
                                                                                       -2.4513349799999999E+000
           4.7049162000000000E-001 2  2.2812622299999998E+000  3.6533528999999998E-001
                                                              -4.3227054999999998E-001
           6.2560033999999998E-001 1  4.3979948000000002E-001
         # Potential name: GTH-PBE for element symbol: SE
         # Potential read from the potential filename: GTH_POTENTIALS
       &END POTENTIAL
     &END KIND
     &TOPOLOGY
       COORD_FILE_NAME inputs/as2se3_96_seed.xyz
       COORD_FILE_FORMAT XYZ
       NUMBER_OF_ATOMS 96
       MULTIPLE_UNIT_CELL 1 1 1
     &END TOPOLOGY
   &END SUBSYS
 &END FORCE_EVAL
