 # Version information for this restart file 
 # current date 2025-10-01 13:05:44.496
 # current working dir /Users/jdmusgraves/GitHub/local_shakedown_kit
 # Program compiled at                                       2025-01-01 12:26:53
 # Program compiled on                                                          
 # Program compiled for                                                    arm64
 # Source code revision number                                                  
 &GLOBAL
   PRINT_LEVEL LOW
   PROJECT_NAME "md_smoke_compat"
   RUN_TYPE MD
 &END GLOBAL
 &MOTION
   &MD
     ENSEMBLE NVT
     STEPS 500
     TIMESTEP  4.9999999999999994E-001
     STEP_START_VAL 80
     TIME_START_VAL  4.0000000000000028E+001
     ECONS_START_VAL -7.7983049204072222E+002
     TEMPERATURE  3.0000000000000000E+002
     &THERMOSTAT
       TYPE CSVR
       &CSVR
         TIMECON  9.9999999999999989E+002
         &THERMOSTAT_ENERGY
             7.0163495618906085E-002
         &END THERMOSTAT_ENERGY
         &RNG_INIT
 Wiener process for Thermostat # 1        1 F T F  -1.2666210035519496E+00        1554799841.0        1284097120.0        4026638514.0         828293567.0         564636851.0        3185085663.0             12345.0             12345.0             12345.0             12345.0             12345.0             12345.0             12345.0             12345.0             12345.0             12345.0             12345.0             12345.0
         &END RNG_INIT
       &END CSVR
     &END THERMOSTAT
     &AVERAGES T
       &RESTART_AVERAGES
         ITIMES_START 1
         AVECPU  1.0415752030875001E+003
         AVEHUGONIOT  0.0000000000000000E+000
         AVETEMP_BARO  0.0000000000000000E+000
         AVEPOT -7.8147125899607693E+002
         AVEKIN  1.5908662114046854E+000
         AVETEMP  3.5252997738035447E+003
         AVEKIN_QM  0.0000000000000000E+000
         AVETEMP_QM  0.0000000000000000E+000
         AVEVOL  5.3986676664719977E+004
         AVECELL_A  3.7794522657712875E+001
         AVECELL_B  3.7794522657712875E+001
         AVECELL_C  3.7794522657712875E+001
         AVEALPHA  9.0000000000000000E+001
         AVEBETA  9.0000000000000000E+001
         AVEGAMMA  9.0000000000000000E+001
         AVE_ECONS -5.8084684022774169E+001
         AVE_PRESS  0.0000000000000000E+000
         AVE_PXX  0.0000000000000000E+000
       &END RESTART_AVERAGES
     &END AVERAGES
   &END MD
   &PRINT
     &TRAJECTORY SILENT
       FILENAME md_smoke_compat-pos-1.xyz
       FORMAT XMOL
       &EACH
         MD 5
       &END EACH
     &END TRAJECTORY
     &VELOCITIES SILENT
       FILENAME md_smoke_compat-vel-1.xyz
       &EACH
         MD 5
       &END EACH
     &END VELOCITIES
   &END PRINT
 &END MOTION
 &FORCE_EVAL
   METHOD QS
   &DFT
     BASIS_SET_FILE_NAME BASIS_MOLOPT
     POTENTIAL_FILE_NAME GTH_POTENTIALS
     &SCF
       MAX_SCF 120
       EPS_SCF  9.9999999999999995E-007
       SCF_GUESS ATOMIC
       IGNORE_CONVERGENCE_FAILURE T
       &OT T
         MINIMIZER DIIS
         LINESEARCH 2PNT
         PRECONDITIONER FULL_SINGLE_INVERSE
       &END OT
     &END SCF
     &QS
       EPS_DEFAULT  9.9999999999999998E-013
       EXTRAPOLATION ASPC
       EXTRAPOLATION_ORDER 3
     &END QS
     &MGRID
       CUTOFF  5.0000000000000000E+002
       REL_CUTOFF  6.0000000000000000E+001
     &END MGRID
     &XC
       DENSITY_CUTOFF  1.0000000000000000E-010
       GRADIENT_CUTOFF  1.0000000000000000E-010
       TAU_CUTOFF  1.0000000000000000E-010
       &XC_FUNCTIONAL NO_SHORTCUT
         &PBE T
         &END PBE
       &END XC_FUNCTIONAL
       &VDW_POTENTIAL
         POTENTIAL_TYPE PAIR_POTENTIAL
         &PAIR_POTENTIAL
           R_CUTOFF  1.6000000000000000E+001
           TYPE DFTD3
           PARAMETER_FILE_NAME dftd3.dat
           REFERENCE_FUNCTIONAL "PBE"
         &END PAIR_POTENTIAL
       &END VDW_POTENTIAL
     &END XC
   &END DFT
   &SUBSYS
     &CELL
       A  2.0000000000000004E+001  0.0000000000000000E+000  0.0000000000000000E+000
       B  0.0000000000000000E+000  2.0000000000000004E+001  0.0000000000000000E+000
       C  0.0000000000000000E+000  0.0000000000000000E+000  2.0000000000000004E+001
       MULTIPLE_UNIT_CELL 1 1 1
     &END CELL
     &COORD
       As  9.5589894543416278E+000  6.6582038458511361E+000  7.3935562960959773E+000
       As  1.3589212155977634E+001  1.9100998069741337E+001  1.3902345699321375E+001
       As  5.4639275954741633E+000  8.4763314363324973E+000  1.6794801099837724E+001
       As  2.0212966482794641E+001  1.2310128265176180E+001  1.6723342380848749E+001
       As  3.2747567923482075E+000  6.7361384638173893E-001  1.3833845024951241E+001
       As  9.2197709859670702E+000  1.5946594304723895E+001  1.8896009910579640E+001
       As  8.6175014634783693E+000  3.7072036344972786E-001  1.9145378697508960E+001
       As  7.0028157158297342E+000  2.5624183991032434E+000  3.2312762991071722E+000
       As  2.8968631937912019E+000  4.5644839498794374E+000  1.7712652921062517E+001
       As  1.0621105893443829E+001  1.4164569934508139E+001  5.7110250592355785E+000
       As  3.2815157315150594E+000  1.1535551897367650E+001  9.0594188503802382E+000
       As  7.4426584097693524E+000  8.0222865993311867E+000  1.7198250052724276E+001
       As  1.3807342049927152E+001  5.6493687008851767E-001  8.2866345348341000E+000
       As  1.7255814800383579E+001  1.8411842013136035E+001  1.5480900647710548E+001
       As  3.7570343595126227E-001  1.3003300996389495E+001  4.8601684894734021E+000
       As  1.7846075610162644E+000  5.1537139808732424E-001  1.8325842545020141E+001
       As  1.4927682179825350E+001  1.0432225712097569E+001  8.6711484625327842E+000
       As  1.1221970129843982E+001  1.1075488322878506E+001  7.2388060547722000E-001
       As  9.6494678491596577E+000  1.7696394389768638E+001  1.0469670470933982E+001
       As  1.4040553979462157E+001  1.4608954094360556E+001  4.1971744243533902E+000
       As  4.7040609466873233E+000  1.6405263867975549E+001  1.1812674565210628E+001
       As  1.5576847926892137E+001  1.1341802975589363E+000  9.6928378905604067E+000
       As  1.8765093679773265E+001  1.4142243210618894E+001  5.6876621838207981E+000
       As  4.4663384209238073E+000  1.9099021088894844E+001  1.1317965223094502E+001
       As  1.9272937845602804E+001  1.5160902978177589E+001  1.7605819780699512E+000
       As  8.3553327165473252E+000  1.6430065646477061E+001  5.2773468766048355E+000
       As  3.6275768337677023E+000  2.5131729276336090E+000  1.4909073558422421E+001
       As  2.5428445709262473E+000  7.3656551742628142E+000  1.3544100319772353E+001
       As  2.4381193532793484E+000  8.0501087130452618E+000  1.0643588216241874E+001
       As  4.4833491485837662E-001  1.9172406570148677E+000  1.6697710922068350E+001
       As  1.8112790448990954E+000  1.7710044726631452E+001  9.9633791529334861E+000
       As  1.4142578297650223E+001  7.7643601624375398E+000  1.4740327883755082E+001
       As  1.4186975252181000E+001  1.5774087463776565E+001  2.2875248149267495E+000
       As  1.6989443662425643E+001  2.7026932879182746E+000  1.3663708623277516E+001
       As  6.9968884372998641E+000  4.9187393709532590E-001  1.7059958223197132E+001
       As  3.9974988262630498E+000  1.5231081250959919E+001  1.3512810620166308E+001
       As  1.2914811282073886E+001  4.5544163393355435E+000  4.4392566512071756E+000
       As  1.7186892874302249E+001  8.7559008254682136E-001  1.8998474000501954E+001
       Se  1.9274281815891886E+001  6.9283931072612743E+000  1.0665163179687699E+001
       Se  1.7907063810048669E+001  4.7159207351879848E+000  1.5533338185990640E+001
       Se  1.5755108541660304E+001  7.6188259810842740E-001  1.2562373213359486E+001
       Se  1.7649983172849524E+001  1.7796933541859445E+001  4.8578874094144329E+000
       Se  2.6872067520998897E+000  1.2825212131116242E+001  1.8928347267200230E+001
       Se  9.2941563471070321E+000  1.0475512291278829E+001  7.5565540351487783E+000
       Se  1.3241726504374855E+001  1.1447087299080076E+001  9.5161275037809165E+000
       Se  1.7017570902156656E+001  8.3998545045630415E+000  7.6991766872936713E+000
       Se  5.4509036030359228E+000  1.0506021747817810E+001  8.7448399629897295E+000
       Se  1.0736921815643958E+001  1.9193261303812669E+001  1.6730632521628099E+000
       Se  1.1205608869569843E+001  7.1357293614527570E+000  5.7169425586966733E+000
       Se  1.0218179007504865E+001  1.3417023602706131E+001  7.9472970043205269E+000
       Se  1.6718307028559863E+001  9.5579254436478287E+000  3.3229283097270557E+000
       Se  1.9294523744116368E+001  6.7450558519505641E+000  1.4211831926289753E+001
       Se  1.3940098492245712E+000  1.1254085410347693E+001  1.4723579850942383E+000
       Se  1.5811692396283531E+001  7.3811764302775513E+000  9.7197983500798255E+000
       Se  1.9178285565568487E+001  7.0599606925438465E+000  4.4421929773869273E+000
       Se  6.3303229955262408E+000  7.6358412210965980E+000  2.6119780262712138E+000
       Se  1.9053215486438294E+001  4.4685237190780018E+000  3.5404248475922864E+000
       Se  1.2298428454113493E+001  1.7408951579158085E+001  5.6435472036800398E+000
       Se  5.4403564838876655E+000  4.5556968502315492E-001  9.8681238831623617E+000
       Se  1.7022625877999168E+001  1.5907797177264877E+001  2.5359010966176627E+000
       Se  1.1812442392330412E+001  1.7394480957705660E+001  1.0321671227193672E+000
       Se  1.0538266594258869E+000  7.2219351276807959E+000  8.6743509220017501E+000
       Se  8.5616567974127520E+000  1.1674883135956058E+001  1.4389005245324983E+001
       Se  1.0411371153409709E+001  7.0443951677608618E+000  1.2994863903574828E+001
       Se  1.7002565334314867E+000  8.8440054075648096E+000  3.5539901227897550E+000
       Se  7.3648551284957686E-001  1.8484164568442485E-001  5.9511715257156137E+000
       Se  1.9432807224322417E+001  1.2088730590453332E+001  2.7227379389370148E+000
       Se  3.7833448931950655E+000  3.4630358533111942E+000  2.0081134565757601E+000
       Se  1.9003487746310622E+001  1.5223501067406859E+000  7.0416675994530680E+000
       Se  5.2918093239836201E+000  9.4236797979129623E+000  9.7841790041542184E-002
       Se  1.1005214836244726E+001  1.5257694146864171E+001  1.6978506662250087E+001
       Se  8.3966860563401848E+000  1.4060771249943340E+000  1.9977541962594949E+000
       Se  1.9464550305375557E+001  3.3626853873892100E+000  1.9831738990710779E+001
       Se  2.3272407837414160E+000  1.7313427693798090E+001  7.7342294661379292E+000
       Se  5.6889620430383783E+000  1.5737062997568056E+001  1.0377620805241847E+000
       Se  6.4815308267281528E+000  1.5160522684335682E+001  8.2497128855868258E+000
       Se  1.5184900355760515E+001  4.3606176084215127E+000  7.0191122577327858E-001
       Se  1.8368675915993453E+001  8.9870122771519778E+000  1.7899859036620889E+001
       Se  1.0064974648822888E+001  2.6191864578338442E+000  1.9065215018162593E+001
       Se  4.7781943038417207E+000  8.7237597550206516E+000  6.1655589739252372E+000
       Se  1.4232266544680208E+001  5.5353921028824384E+000  1.8856446284291668E+001
       Se  1.2780683683522831E+000  5.5902871014598139E+000  1.9469811766487854E+001
       Se  1.3133318025086909E+001  9.0762394558116668E+000  7.5983315528153939E-001
       Se  1.1457215377832977E+001  1.9318358035767691E+001  8.8439639510985728E+000
       Se  1.5116478327292803E+001  1.6413237315010178E+001  7.3899746712082468E+000
       Se  9.9335744236993384E-001  1.7256512463356007E+001  4.1743833619962678E-001
       Se  2.3125855245602120E+000  2.6806377298208668E+000  1.9207120492052866E+001
       Se  1.3138017614862006E+001  1.1016513615247959E+001  3.9166110166933330E+000
       Se  1.3222921093060247E+001  1.1291557820858390E+001  1.7221292553205312E+000
       Se  3.9012596818592469E+000  1.9101398223644054E+001  1.6740607972996834E+001
       Se  1.3978134358409172E+001  1.3584248235951224E+001  1.8826935320404136E+001
       Se  5.1327942279495549E+000  1.7354725143968874E+001  2.9331314953493295E+000
       Se  6.6001787655129016E+000  1.4188177358755050E+001  1.2946229282569384E+001
       Se  2.3001671122642628E+000  1.2241306895840951E+000  9.9149993484036489E+000
       Se  6.4742099948390246E+000  1.0903565945435076E+001  1.4363477130236433E+001
       Se  9.1441505364901303E+000  5.5212714157194078E+000  1.2192871273594202E+001
     &END COORD
     &VELOCITY
         5.9959443558135989E-004  2.6741727930892000E-004 -4.6337585326827198E-004
         4.8074905607473133E-004  9.9790580269776448E-005 -1.3221084935565003E-004
         4.5821456510875203E-004 -8.9498056503023915E-005  7.9733152459307281E-005
         3.6594619982244735E-004 -2.7144260602246539E-004  3.8577231400209526E-004
         1.7035158529919665E-004 -1.2709511255495676E-004  1.2906924319555733E-004
         5.4080302554079752E-004 -1.4810549768542089E-004 -2.3284261210216998E-004
         1.2441503757835780E-004  6.0190074822348958E-005 -8.3762788320658303E-004
        -1.2757930046414004E-004 -2.9316032492271069E-004 -4.8700071868234456E-004
        -3.2182813116652753E-004  2.0221836064074683E-004 -1.1161740656316788E-004
        -2.3140281822231344E-004  3.3748463737748151E-004  4.0157166996581707E-004
         6.4110807326068500E-004 -2.5633639818341264E-004 -7.8435431866617870E-005
        -4.4267626956571803E-004  1.0285225100466188E-004  2.7191084980086899E-005
         5.2931112401056611E-004  2.1203102628963201E-004  8.8865377953113749E-005
        -2.4558730003041400E-004  1.8120947593053095E-004  1.3362012113616844E-004
         5.5116690974207095E-006  7.8483278324446796E-005 -1.1446304711924980E-004
         9.9277915054372191E-005 -2.2336077099756083E-004 -5.0539338850488032E-004
        -3.1837926241972352E-004 -5.9096188917629388E-005  3.7914763809128265E-004
         2.4985066222895963E-004 -6.4733145384480989E-005  2.6416230748068625E-005
         2.3469613335558653E-004  1.5537785476050535E-004 -2.0186063406933607E-004
        -1.2992049464838508E-004  2.5151275986401124E-004  4.6905966401635100E-005
         2.0413054551714725E-004 -3.3798473565398304E-004  1.1256320657413296E-004
        -3.9206149305106436E-004 -1.4296114936881789E-004 -5.5164935449131683E-006
         5.8487672193923222E-005  7.1949432594675073E-005 -8.9976585090620275E-005
        -2.6788781378450660E-004  4.7441176030828204E-004 -9.4154674962497481E-005
        -5.5044474413875396E-004 -3.5157785770603765E-004  3.1196500841546064E-004
         2.0909517037534099E-004 -1.2861605373343859E-004  3.1190392329716099E-004
        -1.9510853701506044E-005 -7.9814528763101045E-005  5.6428379679034160E-005
        -2.8163557522967745E-004  1.9957240691973543E-005 -3.5514138453984290E-004
        -3.4779971365405830E-004 -1.2649017601464943E-004  3.9623389934766405E-005
         8.9172272845343615E-005 -1.3871035076087589E-004  2.6732685310031990E-004
        -2.4698490668666863E-005 -1.1137547826380724E-003 -2.6774693171217217E-004
        -1.4553006334265206E-004 -4.4703844820807890E-006  3.2953601798117261E-005
         2.3109024412864084E-004  6.4607301347083612E-005  1.4417664300330751E-004
         7.7526857807056374E-005 -8.7888032110804842E-005 -3.3783852934219131E-006
         6.6455032842323546E-005 -1.8315712043030525E-005  2.0964628152355435E-004
         2.9061237066885324E-004 -1.4997593176661897E-004 -7.3594743787603042E-005
        -2.8592568352365789E-004  3.3298570973941697E-004  3.6725699641438437E-005
         1.4603684351862812E-004  1.8626221883913364E-004 -1.1441377741945001E-004
         1.9759698954364258E-004  6.1178863682232194E-005 -1.5848790440252568E-004
        -4.6137228640429230E-005  4.1708166344828687E-005 -3.9153847737738939E-004
        -1.2265463768345794E-004  7.7153358861885965E-005 -8.2689940776090691E-005
        -9.4332211932047816E-005 -3.1655479742493753E-004 -1.5265950846961329E-004
        -3.8556226333017493E-004 -2.1840290228617413E-004 -8.0003104341452036E-005
         8.9372848113376645E-005  5.6493809064947968E-005  6.3014257363958639E-006
         2.4119261285181743E-004 -3.8301611414587512E-004 -2.7804969812300027E-004
        -3.3849532530289065E-004 -1.8866277442794503E-004  2.3688557097721098E-004
        -6.1055909994903353E-004  1.5575721981546630E-004 -3.3065041084924204E-004
         1.9513935908424581E-004 -8.8691468819729045E-005 -4.6508101852587517E-005
        -4.2433635540364633E-004 -4.0530015617436889E-004  2.8600010530241556E-004
         5.5060317607243177E-005 -1.7281245638616719E-004 -4.9971443388061823E-004
         1.4185023164315939E-004 -4.4884582491159029E-006  4.0795912212057822E-005
         1.5838968981832924E-004 -3.3825807567207128E-004  1.3466943897770626E-004
        -1.5736103078064316E-004  2.3946849782031747E-004  3.0698279566210187E-004
         3.8565962755025493E-004  3.2871430399113388E-004 -3.9037743373440529E-004
        -2.7035090045974964E-005 -2.4352719174438312E-004 -4.5883990732417055E-004
        -2.7831613669766043E-004  1.5622487954096082E-004 -2.0730836039620879E-004
         1.5910651508931669E-004  4.7549667341251987E-004  1.1161199307170721E-004
         1.8783954270812050E-004 -2.9883943522637975E-004  2.2294074125764170E-004
        -1.1947739231140746E-004 -3.0571181734054292E-004  3.0399915801552021E-004
         1.2702697536249054E-004  8.7725237492507246E-005  1.7693431654730436E-004
        -2.0225867296913224E-004  1.2776409117161306E-004  8.1168271257442228E-005
        -1.7330601943803025E-005 -2.9131757359394355E-005  6.6669360273473213E-004
        -1.2421853475170217E-004  6.6030180463155612E-005 -4.9207101605069890E-005
        -1.2959438773357002E-004 -3.9726847346817237E-004 -6.0270623425624435E-005
        -2.7269544375250928E-004  6.9155702374943144E-005 -1.2253094041273955E-004
        -5.2233856244810503E-004  1.2553674606477947E-004  4.3459368178028977E-004
         2.2819268911117855E-004 -1.0140670639434018E-004 -1.8582142069685247E-006
         2.2302820637885501E-004  7.0189503822168454E-006  6.8448642196108621E-005
         5.1396054806361418E-004 -3.1840046605633766E-004 -2.6754773621376083E-004
         2.1307404865342545E-004 -2.2368488857383965E-004 -3.4166594300429342E-005
        -3.4135638622163639E-004  1.9459498158763867E-004  6.6774330718220398E-004
        -2.4978952028922429E-004  4.2604969320643031E-004  8.1472964961562164E-004
        -6.6886405022889756E-004 -9.9526162929969587E-005  9.9942846686973651E-005
        -1.4696543586183877E-004  3.3275072084095494E-004  2.6358111376733202E-004
        -1.8732837678019464E-004  3.4192197943409413E-004  3.5647637107688064E-004
         1.0468427105284280E-004 -2.7687596256957536E-005 -1.6005418720968368E-004
         2.3939621270230047E-004 -6.1279245511115918E-004  5.6495201585476625E-004
         4.8925582524913916E-005  1.5932051506102439E-004 -2.2777553215673634E-004
        -2.6666772553955042E-004 -4.6864532128883734E-004 -5.5808401639653737E-005
         6.8157788336578286E-005  2.7200759107087969E-004 -1.1299753570926151E-005
         1.4412278565166598E-004 -1.0152940255659128E-003 -9.6763536265275115E-004
        -3.7644470361103664E-005  5.4040550561089635E-004 -1.1788521195290868E-004
        -6.3922704824561499E-004  1.6068040613549744E-003  7.4148678837241419E-004
        -4.3571444878576590E-004 -1.8820405790683674E-004  1.9981665331645179E-004
        -1.6474988178236021E-004  7.9013428111403950E-005 -3.3054998849317107E-004
         2.4102901602305872E-004  4.4086572246294339E-004 -1.8894489120261564E-004
         8.1824090576330271E-004 -3.8458621003022462E-004  1.8466915328530512E-004
         3.7644908773986152E-005 -2.3659422761635157E-004  1.2079901989770310E-003
        -1.9214801846655953E-004 -7.8452691586653714E-004  2.1720440574107906E-005
         7.8520973512667439E-005  3.0770622883743146E-004  8.9696204334656959E-005
         2.2331993976861761E-004  9.8931717199671003E-004 -1.3631445640549537E-003
         3.2762115967462248E-004 -4.3850642868229042E-004 -4.1454507023514961E-004
        -4.3189510157742275E-004  1.1326883618309069E-004 -9.0485643053513689E-005
         2.0166240656313268E-004  1.0521289067949937E-003 -9.7713033912027542E-005
        -3.1255161637034037E-005  1.6135050722251385E-005  1.0048439953732732E-004
         3.6587459882819219E-004  4.0045419115641856E-004  1.4563928695618189E-004
     &END VELOCITY
     &KIND "As"
       BASIS_SET "DZVP-MOLOPT-SR-GTH"
       POTENTIAL "GTH-PBE"
       &POTENTIAL
         2 3
           5.2000000000000002E-001 0
         3
           4.5554957000000001E-001 3  5.5206732699999996E+000  3.5122199999999999E-002 -1.0610823899999999E+000
                                                              -1.7711931999999999E+000  2.7397029499999999E+000
                                                                                       -2.1745717999999998E+000
           5.5460556999999999E-001 2  1.0217915600000000E+000  6.2920825999999996E-001
                                                              -7.4448924999999999E-001
           7.0368872000000005E-001 1  3.1479504000000003E-001
         # Potential name: GTH-PBE for element symbol: AS
         # Potential read from the potential filename: GTH_POTENTIALS
       &END POTENTIAL
     &END KIND
     &KIND "Se"
       BASIS_SET "DZVP-MOLOPT-SR-GTH"
       POTENTIAL "GTH-PBE"
       &POTENTIAL
         2 4
           5.1000000000000001E-001 0
         3
           4.3246004999999998E-001 3  6.5181098999999998E+000 -2.2271638999999999E-001 -1.1961289900000001E+000
                                                              -1.6579783299999999E+000  3.0883917799999998E+000
                                                                                       -2.4513349799999999E+000
           4.7049162000000000E-001 2  2.2812622299999998E+000  3.6533528999999998E-001
                                                              -4.3227054999999998E-001
           6.2560033999999998E-001 1  4.3979948000000002E-001
         # Potential name: GTH-PBE for element symbol: SE
         # Potential read from the potential filename: GTH_POTENTIALS
       &END POTENTIAL
     &END KIND
     &TOPOLOGY
       COORD_FILE_NAME inputs/as2se3_96_seed.xyz
       COORD_FILE_FORMAT XYZ
       NUMBER_OF_ATOMS 96
       MULTIPLE_UNIT_CELL 1 1 1
     &END TOPOLOGY
   &END SUBSYS
 &END FORCE_EVAL
