&GLOBAL
  PROJECT md_sp1
  RUN_TYPE MD
  PRINT_LEVEL LOW
&END GLOBAL

&FORCE_EVAL
  METHOD QS
  &DFT
    BASIS_SET_FILE_NAME  BASIS_MOLOPT
    POTENTIAL_FILE_NAME  GTH_POTENTIALS
    &MGRID
      CUTOFF 500
      REL_CUTOFF 60
    &END MGRID
    &QS
      EPS_DEFAULT 1.0E-12
      EXTRAPOLATION ASPC
      EXTRAPOLATION_ORDER 3
      ENERGY_GAP 0.005
    &END QS
    &SCF
      SCF_GUESS ATOMIC
      EPS_SCF 1.0E-6
      MAX_SCF 120
      ADDED_MOS 20
      &OT
        MINIMIZER DIIS
        PRECONDITIONER FULL_SINGLE_INVERSE
        LINESEARCH 2PNT
      &END OT
      &SMEAR
        METHOD FERMI_DIRAC
        ELECTRONIC_TEMPERATURE [K] 500
      &END SMEAR
      &OUTER_SCF
        EPS_SCF 1.0E-6
        MAX_SCF 10
      &END OUTER_SCF
    &END SCF
    &XC
      &XC_FUNCTIONAL PBE
      &END XC_FUNCTIONAL
      &VDW_POTENTIAL
        POTENTIAL_TYPE PAIR_POTENTIAL
        &PAIR_POTENTIAL
          TYPE DFTD3
          PARAMETER_FILE_NAME dftd3.dat
          REFERENCE_FUNCTIONAL PBE
          R_CUTOFF 16
        &END PAIR_POTENTIAL
      &END VDW_POTENTIAL
    &END XC
  &END DFT
  &SUBSYS
    &CELL
      ABC 16.0 16.0 16.0
    &END CELL
    &TOPOLOGY
      COORD_FILE_FORMAT XYZ
      COORD_FILE inputs/as2se3_cluster.xyz
    &END TOPOLOGY
    &KIND As
      BASIS_SET DZVP-MOLOPT-SR-GTH
      POTENTIAL GTH-PBE
    &END KIND
    &KIND Se
      BASIS_SET DZVP-MOLOPT-SR-GTH
      POTENTIAL GTH-PBE
    &END KIND
  &END SUBSYS
&END FORCE_EVAL

&MOTION
  &MD
    ENSEMBLE NVT
    STEPS 200
    TIMESTEP 0.5
    TEMPERATURE 300
    &THERMOSTAT
      TYPE CSVR
      &CSVR
        TIMECON 1000
      &END CSVR
    &END THERMOSTAT
  &END MD
  &PRINT
    &TRAJECTORY
      FORMAT XYZ
      &EACH
        MD 5
      &END EACH
    &END TRAJECTORY
    &VELOCITIES
      &EACH
        MD 5
      &END EACH
    &END VELOCITIES
  &END PRINT
&END MOTION
