 # Version information for this restart file 
 # current date 2025-09-30 07:35:28.025
 # current working dir /Users/jdmusgraves/GitHub/local_shakedown_kit
 # Program compiled at                                       2025-01-01 12:26:53
 # Program compiled on                                                          
 # Program compiled for                                                    arm64
 # Source code revision number                                                  
 &GLOBAL
   PRINT_LEVEL LOW
   PROJECT_NAME "md_smoke_compat"
   RUN_TYPE MD
 &END GLOBAL
 &MOTION
   &MD
     ENSEMBLE NVT
     STEPS 500
     TIMESTEP  4.9999999999999994E-001
     STEP_START_VAL 280
     TIME_START_VAL  1.4000000000000011E+002
     ECONS_START_VAL -7.7983049204072381E+002
     TEMPERATURE  3.0000000000000000E+002
     &THERMOSTAT
       TYPE CSVR
       &CSVR
         TIMECON  9.9999999999999989E+002
         &THERMOSTAT_ENERGY
             3.0057882063521896E-001
         &END THERMOSTAT_ENERGY
         &RNG_INIT
 Wiener process for Thermostat # 1        1 F T F   8.8871304957567565E-01        2712006499.0        1119323803.0         592408102.0        1175566640.0        1509499588.0         565389491.0             12345.0             12345.0             12345.0             12345.0             12345.0             12345.0             12345.0             12345.0             12345.0             12345.0             12345.0             12345.0
         &END RNG_INIT
       &END CSVR
     &END THERMOSTAT
     &AVERAGES T
       &RESTART_AVERAGES
         ITIMES_START 1
         AVECPU  2.4134080355000000E+002
         AVEHUGONIOT  0.0000000000000000E+000
         AVETEMP_BARO  0.0000000000000000E+000
         AVEPOT -7.8245534721092326E+002
         AVEKIN  2.4762092487293832E+000
         AVETEMP  5.4871866922914714E+003
         AVEKIN_QM  0.0000000000000000E+000
         AVETEMP_QM  0.0000000000000000E+000
         AVEVOL  5.3986676664719977E+004
         AVECELL_A  3.7794522657712875E+001
         AVECELL_B  3.7794522657712875E+001
         AVECELL_C  3.7794522657712875E+001
         AVEALPHA  9.0000000000000000E+001
         AVEBETA  9.0000000000000000E+001
         AVEGAMMA  9.0000000000000000E+001
         AVE_ECONS -6.0391339767780174E+001
         AVE_PRESS  0.0000000000000000E+000
         AVE_PXX  0.0000000000000000E+000
       &END RESTART_AVERAGES
     &END AVERAGES
   &END MD
   &PRINT
     &TRAJECTORY SILENT
       FILENAME md_smoke_compat-pos-1.xyz
       FORMAT XMOL
       &EACH
         MD 5
       &END EACH
     &END TRAJECTORY
     &VELOCITIES SILENT
       FILENAME md_smoke_compat-vel-1.xyz
       &EACH
         MD 5
       &END EACH
     &END VELOCITIES
   &END PRINT
 &END MOTION
 &FORCE_EVAL
   METHOD QS
   &DFT
     BASIS_SET_FILE_NAME BASIS_MOLOPT
     POTENTIAL_FILE_NAME GTH_POTENTIALS
     &SCF
       MAX_SCF 120
       EPS_SCF  9.9999999999999995E-007
       SCF_GUESS ATOMIC
       IGNORE_CONVERGENCE_FAILURE T
       &OT T
         MINIMIZER DIIS
         LINESEARCH 2PNT
         PRECONDITIONER FULL_SINGLE_INVERSE
       &END OT
     &END SCF
     &QS
       EPS_DEFAULT  9.9999999999999998E-013
       EXTRAPOLATION ASPC
       EXTRAPOLATION_ORDER 3
     &END QS
     &MGRID
       CUTOFF  5.0000000000000000E+002
       REL_CUTOFF  6.0000000000000000E+001
     &END MGRID
     &XC
       DENSITY_CUTOFF  1.0000000000000000E-010
       GRADIENT_CUTOFF  1.0000000000000000E-010
       TAU_CUTOFF  1.0000000000000000E-010
       &XC_FUNCTIONAL NO_SHORTCUT
         &PBE T
         &END PBE
       &END XC_FUNCTIONAL
       &VDW_POTENTIAL
         POTENTIAL_TYPE PAIR_POTENTIAL
         &PAIR_POTENTIAL
           R_CUTOFF  1.6000000000000000E+001
           TYPE DFTD3
           PARAMETER_FILE_NAME dftd3.dat
           REFERENCE_FUNCTIONAL "PBE"
         &END PAIR_POTENTIAL
       &END VDW_POTENTIAL
     &END XC
   &END DFT
   &SUBSYS
     &CELL
       A  2.0000000000000004E+001  0.0000000000000000E+000  0.0000000000000000E+000
       B  0.0000000000000000E+000  2.0000000000000004E+001  0.0000000000000000E+000
       C  0.0000000000000000E+000  0.0000000000000000E+000  2.0000000000000004E+001
       MULTIPLE_UNIT_CELL 1 1 1
     &END CELL
     &COORD
       As  9.6189410771277171E+000  7.4063284838588119E+000  7.8201921966476915E+000
       As  1.5278644740319402E+001  1.8862586478224845E+001  1.3987691120057828E+001
       As  5.5358482434175738E+000  8.6851398235482744E+000  1.6750590359812666E+001
       As  2.0286685246596374E+001  1.0839375050920200E+001  1.7114493479327848E+001
       As  3.5902329773238071E+000  2.8482101419200540E-001  1.4119926534422836E+001
       As  9.5564746186591432E+000  1.6360773267057588E+001  2.0020513474013839E+001
       As  9.0473268706011929E+000  1.7947527995472409E-001  1.7463710210627891E+001
       As  5.8263464763072745E+000  2.7492335277245159E+000  3.1883077864728984E+000
       As  1.8893736045605261E+000  4.4316388478347370E+000  1.7930446896125481E+001
       As  1.0584819289671980E+001  1.5131207444241012E+001  5.6951754508171204E+000
       As  3.2350737492656441E+000  1.1676656492641522E+001  9.3593717108729404E+000
       As  7.3532867760561285E+000  8.0966252222564581E+000  1.7629488873964970E+001
       As  1.4191093201152871E+001  6.2200872757761372E-001  8.1526494464160795E+000
       As  1.6192221461605218E+001  1.9248527062502635E+001  1.5754176402282354E+001
       As  5.0780776829622487E-001  1.3260433300131892E+001  4.8244696695501021E+000
       As  1.8069392528056367E+000 -3.0882419321307703E-001  1.7736971289890608E+001
       As  1.5224667789558563E+001  9.7895156391162015E+000  9.2508133282074585E+000
       As  1.0876202647465112E+001  1.1110808863136509E+001  4.5709523407473451E-001
       As  9.7085708501686128E+000  1.7456908835561869E+001  1.0520925797490484E+001
       As  1.3663976046607676E+001  1.5216533999204866E+001  4.5763280933496615E+000
       As  5.2032926992462238E+000  1.6113781641605058E+001  1.1393327043443604E+001
       As  1.5425636344704207E+001  1.1041320066058209E+000  1.0073125407426772E+001
       As  1.8768629345638566E+001  1.4353213874308672E+001  5.5047795942525957E+000
       As  3.2890149730757736E+000  1.9925620632924257E+001  1.1556246276203627E+001
       As  1.8735256288626264E+001  1.4458574677503066E+001  1.9787602393210137E+000
       As  8.3754281042356187E+000  1.6140950204237747E+001  6.4440922950963522E+000
       As  3.4511478310693753E+000  2.3623085118274831E+000  1.4941878899295915E+001
       As  1.2217407036534442E+000  7.0002102793262937E+000  1.3223552246533414E+001
       As  2.6663441519416904E+000  8.4447532329239614E+000  1.0959372836203421E+001
       As  7.6673922584447674E-001  1.9260594784046599E+000  1.7455258830922688E+001
       As  1.9847488864503300E+000  1.5740055456753513E+001  9.6368986944559367E+000
       As  1.3348832488985927E+001  7.5109792259757668E+000  1.4614099904414516E+001
       As  1.4584121898141428E+001  1.5986396741855602E+001  2.4231346279741279E+000
       As  1.7399090253450318E+001  2.6172433092744045E+000  1.3771848713590014E+001
       As  6.3134938276954502E+000  3.1483229070617924E-001  1.7086184073971047E+001
       As  3.9511359620506563E+000  1.4878628277002601E+001  1.4049836998280242E+001
       As  1.2630452023255657E+001  4.7668572034875494E+000  4.2977897892018424E+000
       As  1.7913015790896250E+001  1.1522601339387177E+000  1.8268784254221355E+001
       Se  1.8723796842700040E+001  6.9069545082820456E+000  1.0823463332767160E+001
       Se  1.7718629182809021E+001  4.6205837242306647E+000  1.4274121415711322E+001
       Se  1.5441304147703482E+001  1.3964569963860005E+000  1.2457709694612731E+001
       Se  1.7374056786892591E+001  1.7173733290282595E+001  5.1486862868313343E+000
       Se  2.0781174014244170E+000  1.2583474319713599E+001  1.9438680554132549E+001
       Se  9.5260719787842056E+000  1.0470365166313305E+001  7.4544706234837070E+000
       Se  1.2897620047341611E+001  1.1010022142333947E+001  9.1888248536509973E+000
       Se  1.6744381647195482E+001  8.4141209656210787E+000  6.7738123555946590E+000
       Se  5.6730630077990076E+000  1.0259278704482933E+001  7.8274160727064306E+000
       Se  1.0924982368208132E+001  1.9336456391852767E+001  1.6477598842179544E+000
       Se  1.1228627317059164E+001  6.9744471534344568E+000  5.1058108905127719E+000
       Se  1.0174793729400493E+001  1.2720152167312655E+001  7.5568222477642353E+000
       Se  1.7270760906372434E+001  9.4509914825934640E+000  3.5208566952919367E+000
       Se  1.9901817473766741E+001  5.9956929761782556E+000  1.4450470656412568E+001
       Se  1.5624019017953146E+000  1.0965303383997895E+001  1.9719376568015039E+000
       Se  1.6374977924364011E+001  7.7735211412775662E+000  9.9912984037274963E+000
       Se  1.9164638511262027E+001  7.9966883588775302E+000  3.4260748054584012E+000
       Se  5.3681865720806492E+000  8.0672920043228196E+000  2.4566486467626247E+000
       Se  1.9448515490488472E+001  4.7732554184638198E+000  3.5677609049016890E+000
       Se  1.2267135197321506E+001  1.6351598773873842E+001  6.2699374908053152E+000
       Se  5.1956889242512503E+000  3.0616677056763769E-001  1.0102730663327145E+001
       Se  1.7014289160656038E+001  1.6174163193629152E+001  2.6793558401278816E+000
       Se  1.1390242178948055E+001  1.7136085916680255E+001  8.8592847580294143E-001
       Se  1.0169057609206549E+000  6.9612798294685438E+000  9.3160922422231476E+000
       Se  8.2746549993194076E+000  1.1839789172761579E+001  1.4338037474218019E+001
       Se  1.1124060374692322E+001  7.1744262148299027E+000  1.3454164294846485E+001
       Se  9.4727487194371374E-001  9.0666294494899056E+000  3.1332639425545219E+000
       Se  6.6838916394384817E-001 -7.6991483740452527E-001  6.2872280866855679E+000
       Se  1.9108224201998446E+001  1.2074212530077659E+001  2.8957088504235586E+000
       Se  4.2441727318069491E+000  3.2085328928774435E+000  1.4419945846798199E+000
       Se  1.9157205827293016E+001  1.8106330153905501E+000  7.2528080160037440E+000
       Se  6.1354446121405397E+000  8.7869035478951165E+000 -3.8148769724479120E-001
       Se  1.1950981059091724E+001  1.5041379762311777E+001  1.7125826432328662E+001
       Se  8.5789609738088259E+000  1.6456754905463686E+000  2.9259455020601384E+000
       Se  1.7886985908279676E+001  3.3471235283864451E+000  2.0128087156881293E+001
       Se  2.0094259868832003E+000  1.7966674563804315E+001  8.0570501462472119E+000
       Se  5.4727823644732627E+000  1.5638853100175423E+001  7.0103993792331931E-001
       Se  6.8866806098924931E+000  1.5255682565396773E+001  7.7219876610624185E+000
       Se  1.5288113624731979E+001  3.4759031057299592E+000  3.0249639904660980E-001
       Se  1.8905156546734272E+001  9.7779114634051041E+000  1.7309261891604560E+001
       Se  9.8701659267622226E+000  1.8788502066648991E+000  1.9312151332730252E+001
       Se  4.7605285943374360E+000  9.1316076512498814E+000  5.7024638679841013E+000
       Se  1.5068344369137504E+001  2.8732706444566665E+000  1.8318605752918316E+001
       Se  1.2768505209670415E+000  6.7058071315214587E+000  1.9004450657872773E+001
       Se  1.1379322454432236E+001  9.0485185000696262E+000  6.6099067676099887E-001
       Se  1.1002355235594003E+001  1.9444190950911729E+001  8.5774407339097607E+000
       Se  1.5286120846576470E+001  1.6785926608074224E+001  6.2119774597920037E+000
       Se  1.2634709678765275E+000  1.7973911952052916E+001  1.1115119798327114E-001
       Se  4.0373769488614482E+000  2.2390745155421974E+000  1.9765619750440560E+001
       Se  1.3391541137574206E+001  1.0852665432748012E+001  5.6210055005379180E+000
       Se  1.4113261069257048E+001  1.2720168508954970E+001  4.6575865045176004E+000
       Se  4.4289463842408230E+000  1.9967974170592214E+001  1.6830792137316031E+001
       Se  1.3754422706354427E+001  1.5826857168754897E+001  1.6051272535680546E+001
       Se  5.7695497493353090E+000  1.7223385788440407E+001  3.1664055370368223E+000
       Se  6.1186516401547673E+000  1.4157865773737065E+001  1.2488724669630228E+001
       Se  3.0890881468138631E+000  2.8859436466059356E+000  9.9036952667702387E+000
       Se  6.2844394528979191E+000  1.0849050413829705E+001  1.4597261501674959E+001
       Se  9.4601068402929442E+000  5.6121546557695066E+000  1.2156437108863253E+001
     &END COORD
     &VELOCITY
         2.2496763871078149E-005  4.7065972802796344E-004  2.1240134693078345E-004
         1.2855431027475282E-004 -7.0567237488914714E-004 -4.3914691740312456E-004
         3.7139137781167354E-004  1.7241129043237902E-004  1.5348329076649922E-005
         1.8686347384647861E-004 -4.4121761684257722E-004 -4.4481970662055563E-004
         1.2653043469082630E-004 -1.2003511566583327E-004  7.9937580796062059E-005
         2.4676544505214718E-004  3.7735694666185082E-004  8.3800221520051704E-004
         2.9282654276151888E-004 -6.2325676286876283E-005 -4.7846860540211111E-004
         2.5368070294666881E-004 -8.6889391247038877E-005  4.6376622779697774E-004
        -3.9710441096667775E-004 -2.5182595745183571E-004  1.5380966691086605E-004
         4.0727783245053824E-004 -1.5473906847164369E-006 -2.0841528022008882E-004
        -8.8030740737281103E-006 -5.2157140625254479E-005  6.6946917283361619E-005
        -3.9039976961467948E-004  1.3339172120954110E-004  3.0890410131177742E-004
         1.5701529357350024E-004 -5.3992766305971451E-005  3.2266564299083113E-004
        -4.9219877342570925E-005  5.3929966064395136E-004  9.8714265276674397E-004
         6.8612146662508933E-005  1.1484335866200865E-004  1.5811216455659784E-005
        -5.6360405820434889E-004 -4.3198261276171097E-004  2.4176930488895812E-004
         1.0940430513181887E-005 -3.3778282093476339E-005  8.1817484085906282E-005
         1.1188475678197807E-005 -3.5593926761572976E-004 -4.1796051370371299E-005
        -4.1458775966472719E-005 -1.1907238183029160E-004  1.4761106912661783E-005
         8.7698505861214143E-006  2.1365224710885174E-004  1.1422968097519504E-004
        -4.8887150279304817E-005 -1.3985656734124896E-004 -7.5863642427358030E-005
        -1.0366726969501364E-004  1.9515482196153027E-005 -1.6150916955865732E-004
        -5.3577529440971382E-005  6.1101120712064229E-005 -7.1644645785855937E-005
        -3.1686572899360165E-004  6.2162403007736268E-004 -1.7428948325082192E-004
        -4.6277985148679692E-005 -4.8180766964778211E-004  1.9495805334884777E-005
         4.8078523017650048E-004  7.0911849419520701E-004 -2.6282827106224638E-004
        -1.6889480951640557E-004 -1.7259867910404984E-004 -8.6046392336833807E-005
        -7.1429905501889227E-004 -3.4524353079921341E-004  4.0086521686994911E-004
         2.7870619886238634E-004  3.9873935542089102E-004 -3.4569624250737713E-004
         1.5933698393588507E-004  5.7450416199555208E-005  3.9614442754875147E-004
         2.4466924347974682E-004 -4.9026270850891418E-004 -4.1625319069492507E-004
        -8.1662635532000084E-004 -2.7677755388086882E-004 -2.8955296019908539E-004
         1.8720962150317098E-004  7.0018589440277261E-005  1.1413795246242778E-004
         2.2410789430037502E-004 -5.7082048455252092E-004 -4.2752234869293488E-005
        -2.1956215104454406E-004 -8.7383211170009539E-005 -1.3608517911140979E-004
        -5.5532468348933491E-005  4.8775188036607958E-005  4.4253546521803878E-005
         2.2545528946981219E-004 -4.3479175057834700E-004 -2.9546630793792704E-004
         2.8363276242712564E-004 -3.8141188883775531E-004 -7.9821699251999157E-004
        -4.5301903693345264E-004 -4.4864524072042723E-005  6.1197673686139823E-005
        -2.7904020660310386E-004  2.5200120184026609E-004 -4.0739307207070691E-004
        -4.4562240822838110E-005  7.1758092576076091E-004 -3.8862030036526440E-004
        -1.4535001353201666E-004  1.9919621458806244E-005  7.5145340410264654E-004
         5.6671071379769832E-005 -1.8592181503745984E-005  8.1750213708226601E-004
        -1.6650950888672672E-004 -7.3720991202559779E-004 -1.2314043419666733E-004
         1.3799358031512063E-004 -4.6992910910697823E-004 -1.8191501258992275E-004
        -1.7892851045372840E-004  1.7827669723458371E-004 -4.7891971514860772E-004
         2.5150555761066235E-004  2.0965803667668869E-004  1.1152092394820747E-004
         1.0887643996357014E-004 -1.3083402645603726E-004 -9.8783238316176207E-005
        -2.7680587985978109E-004  5.1893626122429795E-004 -7.7945672017590853E-005
         2.1284091744478329E-004  3.1511585119308328E-004  7.8639904931490267E-006
         4.0172036681251038E-004 -1.8274680356929773E-004  1.9895026907465154E-004
         5.4767641998796929E-004 -1.2753484883642005E-004  3.7070127915287916E-005
         6.7518573420204480E-005 -2.7169086423577918E-004  4.0260827153669991E-005
         3.2348963618342803E-004  3.3988788676096504E-005  2.0500641248485520E-004
        -3.2591076950549004E-004  6.9414236659825655E-004 -3.6933750163560162E-004
        -4.3629112117439376E-004 -3.1411460750723044E-005  4.0056993852510635E-004
         1.6322137663235154E-004  6.9509075380860025E-006 -9.4108919014026379E-005
        -8.8887275388190479E-004 -3.6057934209545936E-004  1.7415179228847397E-004
        -5.2323164970215479E-004 -5.9894540000141598E-006  3.4373164633421294E-004
        -3.0463926586777674E-004 -5.3016580749781200E-005 -4.5859592254671064E-004
        -4.4988183024897445E-004  4.1340604222351644E-005 -1.0475882410054417E-004
        -8.4062569684155395E-005 -3.9361358699652044E-005  2.6367328444581252E-004
        -2.3981696885349153E-004  1.5396433728640754E-005  1.8520929931550074E-005
         3.9028614348113468E-004 -7.8564316794149807E-005  1.8138096742580784E-004
        -5.8217714475391104E-005  2.1649348396764160E-004 -2.2793151790048303E-004
        -3.8050480687421741E-005 -4.1123080837148396E-004  3.9136392980082508E-004
        -2.4881765083195314E-004  1.7002270622823855E-004  1.7310339102257581E-004
        -1.1859412356194687E-004  2.2310933507685101E-004 -1.8683889420711486E-004
         1.8969241041072980E-004 -8.3431463819587780E-005  5.6277267793977982E-005
         4.4104129082871173E-004 -8.2256190485056744E-005 -8.7179164930420027E-004
         1.0015941935572600E-003 -1.9141464264477948E-004 -2.3766578287336135E-004
        -2.1818356433035563E-004  1.5298459572545139E-004  2.9370939820607051E-004
        -5.4359670583894288E-004  5.5855131904767620E-004  5.6743786802107251E-004
        -2.1956996366598048E-004  1.0025253775271913E-004  2.9782004245941946E-004
        -1.1196760537660861E-005  1.1909825165523275E-004  8.1078591137592773E-005
        -7.3894573386592709E-004 -4.4128855374420806E-004  6.1968000828674472E-004
         7.2937670697681526E-005 -3.3177708896144060E-004 -7.4939154453989665E-004
        -2.3856211263004800E-004 -3.1073671151529215E-005 -1.2883788658746935E-004
         1.3912167519073266E-005 -3.6097126081243428E-004  1.2750796438449233E-004
        -1.7438094804316114E-004 -9.8257105459123562E-005 -6.8674698653175008E-004
         4.4937534802538435E-004 -1.3071676862001225E-003  2.1864896253884973E-004
        -5.5807688534988799E-005  4.1978048727530747E-004 -1.9859655398154713E-004
        -9.9332165955755823E-004  6.8929474918305654E-005 -2.5653953466855728E-004
        -5.6342917300432278E-005  9.1962489322244126E-005 -2.0896116347976978E-004
         1.0164598337945162E-003  1.2591695895973788E-004 -4.9963009766774242E-004
         1.4452668001621125E-004  4.2514521629741030E-004 -2.9687806884903556E-004
         6.1017315450902362E-004 -3.7705582441959135E-004 -3.5823323163650843E-004
         2.1628298994238099E-004  1.6264293204439975E-004  3.9779595489863011E-004
         3.8344668842830808E-004  7.5511176474111965E-004  1.8598394971750974E-003
         3.7833320530803843E-004  3.0233272802451588E-004 -1.3884282128123494E-004
        -5.8462272113317425E-004  1.0382100174350962E-003 -1.0811762912308462E-003
         2.5281331870918676E-004 -2.0257048520006367E-004 -1.2030879972870925E-004
        -7.6658223814422924E-005 -1.3428589912229161E-004 -2.5233159471916775E-004
         5.2175609572104400E-004  3.9391521204182371E-004  1.0061752577593675E-004
        -7.2905174738038689E-005 -7.2330431566423637E-005  1.5225032087240388E-004
         5.2806780627974480E-004  3.3223192640498918E-004  2.1718089932392707E-004
     &END VELOCITY
     &KIND "As"
       BASIS_SET "DZVP-MOLOPT-SR-GTH"
       POTENTIAL "GTH-PBE"
       &POTENTIAL
         2 3
           5.2000000000000002E-001 0
         3
           4.5554957000000001E-001 3  5.5206732699999996E+000  3.5122199999999999E-002 -1.0610823899999999E+000
                                                              -1.7711931999999999E+000  2.7397029499999999E+000
                                                                                       -2.1745717999999998E+000
           5.5460556999999999E-001 2  1.0217915600000000E+000  6.2920825999999996E-001
                                                              -7.4448924999999999E-001
           7.0368872000000005E-001 1  3.1479504000000003E-001
         # Potential name: GTH-PBE for element symbol: AS
         # Potential read from the potential filename: GTH_POTENTIALS
       &END POTENTIAL
     &END KIND
     &KIND "Se"
       BASIS_SET "DZVP-MOLOPT-SR-GTH"
       POTENTIAL "GTH-PBE"
       &POTENTIAL
         2 4
           5.1000000000000001E-001 0
         3
           4.3246004999999998E-001 3  6.5181098999999998E+000 -2.2271638999999999E-001 -1.1961289900000001E+000
                                                              -1.6579783299999999E+000  3.0883917799999998E+000
                                                                                       -2.4513349799999999E+000
           4.7049162000000000E-001 2  2.2812622299999998E+000  3.6533528999999998E-001
                                                              -4.3227054999999998E-001
           6.2560033999999998E-001 1  4.3979948000000002E-001
         # Potential name: GTH-PBE for element symbol: SE
         # Potential read from the potential filename: GTH_POTENTIALS
       &END POTENTIAL
     &END KIND
     &TOPOLOGY
       COORD_FILE_NAME inputs/as2se3_96_seed.xyz
       COORD_FILE_FORMAT XYZ
       NUMBER_OF_ATOMS 96
       MULTIPLE_UNIT_CELL 1 1 1
     &END TOPOLOGY
   &END SUBSYS
 &END FORCE_EVAL
