 # Version information for this restart file 
 # current date 2025-10-01 10:05:40.537
 # current working dir /Users/jdmusgraves/GitHub/local_shakedown_kit
 # Program compiled at                                       2025-01-01 12:26:53
 # Program compiled on                                                          
 # Program compiled for                                                    arm64
 # Source code revision number                                                  
 &GLOBAL
   PRINT_LEVEL LOW
   PROJECT_NAME "md_smoke_compat"
   RUN_TYPE MD
 &END GLOBAL
 &MOTION
   &MD
     ENSEMBLE NVT
     STEPS 500
     TIMESTEP  4.9999999999999994E-001
     STEP_START_VAL 80
     TIME_START_VAL  4.0000000000000028E+001
     ECONS_START_VAL -7.7983049204072051E+002
     TEMPERATURE  3.0000000000000000E+002
     &THERMOSTAT
       TYPE CSVR
       &CSVR
         TIMECON  9.9999999999999989E+002
         &THERMOSTAT_ENERGY
             7.0163495619391808E-002
         &END THERMOSTAT_ENERGY
         &RNG_INIT
 Wiener process for Thermostat # 1        1 F T F  -1.2666210035519496E+00        1554799841.0        1284097120.0        4026638514.0         828293567.0         564636851.0        3185085663.0             12345.0             12345.0             12345.0             12345.0             12345.0             12345.0             12345.0             12345.0             12345.0             12345.0             12345.0             12345.0
         &END RNG_INIT
       &END CSVR
     &END THERMOSTAT
     &AVERAGES T
       &RESTART_AVERAGES
         ITIMES_START 1
         AVECPU  9.4882306867500051E+002
         AVEHUGONIOT  0.0000000000000000E+000
         AVETEMP_BARO  0.0000000000000000E+000
         AVEPOT -7.8147125899606453E+002
         AVEKIN  1.5908662114682344E+000
         AVETEMP  3.5252997739443649E+003
         AVEKIN_QM  0.0000000000000000E+000
         AVETEMP_QM  0.0000000000000000E+000
         AVEVOL  5.3986676664719977E+004
         AVECELL_A  3.7794522657712875E+001
         AVECELL_B  3.7794522657712875E+001
         AVECELL_C  3.7794522657712875E+001
         AVEALPHA  9.0000000000000000E+001
         AVEBETA  9.0000000000000000E+001
         AVEGAMMA  9.0000000000000000E+001
         AVE_ECONS -5.8084683790241243E+001
         AVE_PRESS  0.0000000000000000E+000
         AVE_PXX  0.0000000000000000E+000
       &END RESTART_AVERAGES
     &END AVERAGES
   &END MD
   &PRINT
     &TRAJECTORY SILENT
       FILENAME md_smoke_compat-pos-1.xyz
       FORMAT XMOL
       &EACH
         MD 5
       &END EACH
     &END TRAJECTORY
     &VELOCITIES SILENT
       FILENAME md_smoke_compat-vel-1.xyz
       &EACH
         MD 5
       &END EACH
     &END VELOCITIES
   &END PRINT
 &END MOTION
 &FORCE_EVAL
   METHOD QS
   &DFT
     BASIS_SET_FILE_NAME BASIS_MOLOPT
     POTENTIAL_FILE_NAME GTH_POTENTIALS
     &SCF
       MAX_SCF 120
       EPS_SCF  9.9999999999999995E-007
       SCF_GUESS ATOMIC
       IGNORE_CONVERGENCE_FAILURE T
       &OT T
         MINIMIZER DIIS
         LINESEARCH 2PNT
         PRECONDITIONER FULL_SINGLE_INVERSE
       &END OT
     &END SCF
     &QS
       EPS_DEFAULT  9.9999999999999998E-013
       EXTRAPOLATION ASPC
       EXTRAPOLATION_ORDER 3
     &END QS
     &MGRID
       CUTOFF  5.0000000000000000E+002
       REL_CUTOFF  6.0000000000000000E+001
     &END MGRID
     &XC
       DENSITY_CUTOFF  1.0000000000000000E-010
       GRADIENT_CUTOFF  1.0000000000000000E-010
       TAU_CUTOFF  1.0000000000000000E-010
       &XC_FUNCTIONAL NO_SHORTCUT
         &PBE T
         &END PBE
       &END XC_FUNCTIONAL
       &VDW_POTENTIAL
         POTENTIAL_TYPE PAIR_POTENTIAL
         &PAIR_POTENTIAL
           R_CUTOFF  1.6000000000000000E+001
           TYPE DFTD3
           PARAMETER_FILE_NAME dftd3.dat
           REFERENCE_FUNCTIONAL "PBE"
         &END PAIR_POTENTIAL
       &END VDW_POTENTIAL
     &END XC
   &END DFT
   &SUBSYS
     &CELL
       A  2.0000000000000004E+001  0.0000000000000000E+000  0.0000000000000000E+000
       B  0.0000000000000000E+000  2.0000000000000004E+001  0.0000000000000000E+000
       C  0.0000000000000000E+000  0.0000000000000000E+000  2.0000000000000004E+001
       MULTIPLE_UNIT_CELL 1 1 1
     &END CELL
     &COORD
       As  9.5589894541875466E+000  6.6582038459688038E+000  7.3935562960400230E+000
       As  1.3589212156140951E+001  1.9100998069566458E+001  1.3902345699169924E+001
       As  5.4639275954764903E+000  8.4763314366035143E+000  1.6794801100038800E+001
       As  2.0212966482839278E+001  1.2310128265319086E+001  1.6723342380931030E+001
       As  3.2747567922378176E+000  6.7361384671007396E-001  1.3833845025034293E+001
       As  9.2197709857513992E+000  1.5946594305190137E+001  1.8896009910564366E+001
       As  8.6175014632240643E+000  3.7072036319669288E-001  1.9145378697840634E+001
       As  7.0028157151911747E+000  2.5624183994475369E+000  3.2312762990013115E+000
       As  2.8968631935296196E+000  4.5644839499155374E+000  1.7712652920715691E+001
       As  1.0621105893474029E+001  1.4164569934505975E+001  5.7110250593274383E+000
       As  3.2815157321870578E+000  1.1535551897237694E+001  9.0594188502944277E+000
       As  7.4426584101008935E+000  8.0222865993623316E+000  1.7198250052758503E+001
       As  1.3807342050036510E+001  5.6493687052619368E-001  8.2866345345708865E+000
       As  1.7255814800265007E+001  1.8411842013348927E+001  1.5480900647909127E+001
       As  3.7570343575058224E-001  1.3003300996353381E+001  4.8601684894289381E+000
       As  1.7846075609289176E+000  5.1537139798429454E-001  1.8325842544702464E+001
       As  1.4927682180283110E+001  1.0432225711561387E+001  8.6711484628622983E+000
       As  1.1221970129715363E+001  1.1075488322933820E+001  7.2388060551170030E-001
       As  9.6494678485372596E+000  1.7696394389500533E+001  1.0469670471134750E+001
       As  1.4040553979380190E+001  1.4608954094036015E+001  4.1971744240639337E+000
       As  4.7040609466749919E+000  1.6405263867730675E+001  1.1812674565288637E+001
       As  1.5576847927311446E+001  1.1341802974422286E+000  9.6928378906732444E+000
       As  1.8765093679786823E+001  1.4142243210551204E+001  5.6876621834500334E+000
       As  4.4663384209572863E+000  1.9099021089011906E+001  1.1317965223075209E+001
       As  1.9272937845748416E+001  1.5160902978189119E+001  1.7605819780653351E+000
       As  8.3553327160169619E+000  1.6430065646404639E+001  5.2773468769033887E+000
       As  3.6275768333652274E+000  2.5131729273121985E+000  1.4909073558803273E+001
       As  2.5428445707572056E+000  7.3656551743370464E+000  1.3544100319486612E+001
       As  2.4381193531423957E+000  8.0501087128197177E+000  1.0643588216154622E+001
       As  4.4833491571396916E-001  1.9172406570258858E+000  1.6697710922273544E+001
       As  1.8112790451812191E+000  1.7710044726561286E+001  9.9633791526521840E+000
       As  1.4142578298232250E+001  7.7643601620594129E+000  1.4740327884316837E+001
       As  1.4186975252611667E+001  1.5774087463794128E+001  2.2875248149964329E+000
       As  1.6989443662835246E+001  2.7026932875056144E+000  1.3663708622995699E+001
       As  6.9968884369559454E+000  4.9187393666803036E-001  1.7059958222909508E+001
       As  3.9974988266010247E+000  1.5231081251082038E+001  1.3512810619819863E+001
       As  1.2914811282240082E+001  4.5544163390732795E+000  4.4392566511174367E+000
       As  1.7186892874254372E+001  8.7559008189047383E-001  1.8998474000495357E+001
       Se  1.9274281815975797E+001  6.9283931076560918E+000  1.0665163179419624E+001
       Se  1.7907063809432842E+001  4.7159207351199797E+000  1.5533338186202803E+001
       Se  1.5755108541397286E+001  7.6188259863031604E-001  1.2562373213713984E+001
       Se  1.7649983173139063E+001  1.7796933541713845E+001  4.8578874095451390E+000
       Se  2.6872067517476372E+000  1.2825212130731073E+001  1.8928347267480277E+001
       Se  9.2941563469769246E+000  1.0475512291119328E+001  7.5565540351459131E+000
       Se  1.3241726504157681E+001  1.1447087299293191E+001  9.5161275036128217E+000
       Se  1.7017570902187529E+001  8.3998545047537565E+000  7.6991766870653429E+000
       Se  5.4509036020827466E+000  1.0506021748104811E+001  8.7448399631188849E+000
       Se  1.0736921815473170E+001  1.9193261304316636E+001  1.6730632521945374E+000
       Se  1.1205608869485559E+001  7.1357293616929489E+000  5.7169425587908638E+000
       Se  1.0218179007603672E+001  1.3417023602922292E+001  7.9472970045600038E+000
       Se  1.6718307029050578E+001  9.5579254436981653E+000  3.3229283096204290E+000
       Se  1.9294523744204746E+001  6.7450558521825412E+000  1.4211831926143088E+001
       Se  1.3940098495168849E+000  1.1254085410431440E+001  1.4723579850715254E+000
       Se  1.5811692395827484E+001  7.3811764302636913E+000  9.7197983502837317E+000
       Se  1.9178285565165822E+001  7.0599606928927310E+000  4.4421929776529092E+000
       Se  6.3303229953787232E+000  7.6358412209376070E+000  2.6119780261761285E+000
       Se  1.9053215486480727E+001  4.4685237189355398E+000  3.5404248474340534E+000
       Se  1.2298428454008874E+001  1.7408951578860037E+001  5.6435472036008152E+000
       Se  5.4403564838415894E+000  4.5556968477139309E-001  9.8681238831326148E+000
       Se  1.7022625878050476E+001  1.5907797177203866E+001  2.5359010964764712E+000
       Se  1.1812442392140779E+001  1.7394480957475452E+001  1.0321671226317646E+000
       Se  1.0538266599160482E+000  7.2219351278197701E+000  8.6743509223216879E+000
       Se  8.5616567971556297E+000  1.1674883135714353E+001  1.4389005245256330E+001
       Se  1.0411371153219239E+001  7.0443951679483234E+000  1.2994863902989891E+001
       Se  1.7002565337242388E+000  8.8440054079358603E+000  3.5539901227950992E+000
       Se  7.3648551278359076E-001  1.8484164543267473E-001  5.9511715259340141E+000
       Se  1.9432807224268931E+001  1.2088730590891435E+001  2.7227379390587405E+000
       Se  3.7833448935501592E+000  3.4630358531234520E+000  2.0081134568666159E+000
       Se  1.9003487746055008E+001  1.5223501068690894E+000  7.0416675994049989E+000
       Se  5.2918093238391206E+000  9.4236797977346729E+000  9.7841789823988862E-002
       Se  1.1005214836275423E+001  1.5257694146900194E+001  1.6978506662258670E+001
       Se  8.3966860565989982E+000  1.4060771243836465E+000  1.9977541963065835E+000
       Se  1.9464550305882646E+001  3.3626853878681127E+000  1.9831738990886020E+001
       Se  2.3272407839286613E+000  1.7313427694004602E+001  7.7342294663147912E+000
       Se  5.6889620430354393E+000  1.5737062997677077E+001  1.0377620809347439E+000
       Se  6.4815308267011345E+000  1.5160522684380330E+001  8.2497128853942439E+000
       Se  1.5184900355690990E+001  4.3606176079623644E+000  7.0191122589142996E-001
       Se  1.8368675915941481E+001  8.9870122772100665E+000  1.7899859036623265E+001
       Se  1.0064974649043579E+001  2.6191864584453963E+000  1.9065215017854662E+001
       Se  4.7781943039161838E+000  8.7237597550391666E+000  6.1655589736503016E+000
       Se  1.4232266544786013E+001  5.5353921034767462E+000  1.8856446284042690E+001
       Se  1.2780683683757821E+000  5.5902871013520938E+000  1.9469811766632716E+001
       Se  1.3133318024885517E+001  9.0762394561261015E+000  7.5983315538790497E-001
       Se  1.1457215377992160E+001  1.9318358035657422E+001  8.8439639509760131E+000
       Se  1.5116478327398335E+001  1.6413237315132395E+001  7.3899746713546746E+000
       Se  9.9335744219469135E-001  1.7256512463152717E+001  4.1743833622850773E-001
       Se  2.3125855241872904E+000  2.6806377298048716E+000  1.9207120491669638E+001
       Se  1.3138017614542909E+001  1.1016513615334418E+001  3.9166110167329227E+000
       Se  1.3222921094046084E+001  1.1291557820474125E+001  1.7221292552224883E+000
       Se  3.9012596825117560E+000  1.9101398223890698E+001  1.6740607972800937E+001
       Se  1.3978134357923430E+001  1.3584248236021594E+001  1.8826935320476537E+001
       Se  5.1327942282634842E+000  1.7354725143422350E+001  2.9331314949296083E+000
       Se  6.6001787651674428E+000  1.4188177358774738E+001  1.2946229282750137E+001
       Se  2.3001671123718772E+000  1.2241306895164099E+000  9.9149993486756482E+000
       Se  6.4742099947777252E+000  1.0903565945252428E+001  1.4363477130279719E+001
       Se  9.1441505364442204E+000  5.5212714157871101E+000  1.2192871273840678E+001
     &END COORD
     &VELOCITY
         5.9959443641984357E-004  2.6741727732007960E-004 -4.6337585525830908E-004
         4.8074906026101042E-004  9.9790580773130209E-005 -1.3221085062244906E-004
         4.5821456658699751E-004 -8.9498055710656943E-005  7.9733150212113626E-005
         3.6594619858549275E-004 -2.7144260458857261E-004  3.8577231367768132E-004
         1.7035158427594079E-004 -1.2709511352993543E-004  1.2906924163855294E-004
         5.4080302398506249E-004 -1.4810549586422397E-004 -2.3284261071782067E-004
         1.2441503820689753E-004  6.0190073335324085E-005 -8.3762788223186815E-004
        -1.2757930486022442E-004 -2.9316032392496367E-004 -4.8700071873954663E-004
        -3.2182813066269168E-004  2.0221836150752446E-004 -1.1161740866903207E-004
        -2.3140281783933474E-004  3.3748463520223341E-004  4.0157167534249182E-004
         6.4110807508785882E-004 -2.5633639822488386E-004 -7.8435433201260363E-005
        -4.4267626863974627E-004  1.0285225168902761E-004  2.7191087203998001E-005
         5.2931112285903130E-004  2.1203102161275754E-004  8.8865376862480455E-005
        -2.4558730050160138E-004  1.8120947830046905E-004  1.3362012197443385E-004
         5.5116694827822681E-006  7.8483278382134389E-005 -1.1446304975725361E-004
         9.9277915518102401E-005 -2.2336077146711724E-004 -5.0539339066968099E-004
        -3.1837926233088963E-004 -5.9096189232168107E-005  3.7914763948191543E-004
         2.4985066203285353E-004 -6.4733144721349832E-005  2.6416230187090223E-005
         2.3469613206209198E-004  1.5537785503399605E-004 -2.0186063152509792E-004
        -1.2992049531918210E-004  2.5151275892944421E-004  4.6905966144162326E-005
         2.0413054668006990E-004 -3.3798473654889950E-004  1.1256320192026428E-004
        -3.9206148980430305E-004 -1.4296114355620156E-004 -5.5164888989030546E-006
         5.8487669264906791E-005  7.1949433287021183E-005 -8.9976584346837405E-005
        -2.6788780958403454E-004  4.7441176432604223E-004 -9.4154674968672270E-005
        -5.5044474368396833E-004 -3.5157785725372032E-004  3.1196500889324751E-004
         2.0909516702372202E-004 -1.2861605291320132E-004  3.1190392478875701E-004
        -1.9510854000764428E-005 -7.9814528951220408E-005  5.6428381058216877E-005
        -2.8163557825044099E-004  1.9957241990155411E-005 -3.5514138487324060E-004
        -3.4779971276750315E-004 -1.2649017866589901E-004  3.9623390308133175E-005
         8.9172278783131392E-005 -1.3871035317127622E-004  2.6732685231687140E-004
        -2.4698490822280195E-005 -1.1137547811475197E-003 -2.6774693221937187E-004
        -1.4553006059489973E-004 -4.4703818585518289E-006  3.2953602600261378E-005
         2.3109024360960971E-004  6.4607302340333907E-005  1.4417664364282427E-004
         7.7526864659941536E-005 -8.7888034315578329E-005 -3.3783806296208752E-006
         6.6455031030528787E-005 -1.8315711961580775E-005  2.0964628066343042E-004
         2.9061237212520846E-004 -1.4997593272030317E-004 -7.3594743552746501E-005
        -2.8592568380364763E-004  3.3298570700399468E-004  3.6725700215769432E-005
         1.4603684635806249E-004  1.8626222031681338E-004 -1.1441377424252337E-004
         1.9759699081560057E-004  6.1178862979652056E-005 -1.5848790386361288E-004
        -4.6137234300588631E-005  4.1708164642769037E-005 -3.9153847830822287E-004
        -1.2265464428031680E-004  7.7153352412456000E-005 -8.2689947390677444E-005
        -9.4332208284076717E-005 -3.1655480243545183E-004 -1.5265951199623269E-004
        -3.8556226205446883E-004 -2.1840290498072502E-004 -8.0003102680812677E-005
         8.9372846793532061E-005  5.6493809492083393E-005  6.3014268743452771E-006
         2.4119261231009257E-004 -3.8301611425279784E-004 -2.7804969852987321E-004
        -3.3849532507121725E-004 -1.8866277432793289E-004  2.3688556910653189E-004
        -6.1055910176396650E-004  1.5575722140214788E-004 -3.3065040854603819E-004
         1.9513935965452517E-004 -8.8691467916351778E-005 -4.6508101641475295E-005
        -4.2433635615604534E-004 -4.0530015412823935E-004  2.8600010572136413E-004
         5.5060321119718935E-005 -1.7281245389989027E-004 -4.9971443800238139E-004
         1.4185023187186685E-004 -4.4884587056877458E-006  4.0795912814507173E-005
         1.5838969274597575E-004 -3.3825807186902134E-004  1.3466943728764595E-004
        -1.5736103039216745E-004  2.3946849862657160E-004  3.0698279632144658E-004
         3.8565962734430796E-004  3.2871430362323172E-004 -3.9037743372516057E-004
        -2.7035091797997868E-005 -2.4352719139294907E-004 -4.5883990693257781E-004
        -2.7831614040637015E-004  1.5622487767724870E-004 -2.0730835955796022E-004
         1.5910651426485914E-004  4.7549667334953081E-004  1.1161199345257570E-004
         1.8783954116744986E-004 -2.9883943672220621E-004  2.2294073932219497E-004
        -1.1947739017869078E-004 -3.0571182239033017E-004  3.0399915973718084E-004
         1.2702697834153322E-004  8.7725239518452602E-005  1.7693431692251512E-004
        -2.0225867401590621E-004  1.2776409169433303E-004  8.1168270920444871E-005
        -1.7330602233402899E-005 -2.9131755523651931E-005  6.6669360387365886E-004
        -1.2421853350391400E-004  6.6030178257759766E-005 -4.9207101092871655E-005
        -1.2959438834069122E-004 -3.9726847845535540E-004 -6.0270620926664568E-005
        -2.7269544295565728E-004  6.9155703951054388E-005 -1.2253094141630836E-004
        -5.2233856665005090E-004  1.2553674328575842E-004  4.3459368514453019E-004
         2.2819268965841970E-004 -1.0140670430558670E-004 -1.8582121126656054E-006
         2.2302821118517797E-004  7.0189505401249354E-006  6.8448642881381423E-005
         5.1396054589125748E-004 -3.1840046284718293E-004 -2.6754773823164940E-004
         2.1307404794995325E-004 -2.2368488944225930E-004 -3.4166596125146192E-005
        -3.4135638584261883E-004  1.9459498105701159E-004  6.6774330657965852E-004
        -2.4978951892829583E-004  4.2604968937507180E-004  8.1472965028863125E-004
        -6.6886405197408543E-004 -9.9526159757306798E-005  9.9942853820779215E-005
        -1.4696543437630341E-004  3.3275072060731756E-004  2.6358111336150734E-004
        -1.8732837505724769E-004  3.4192197911016119E-004  3.5647637151901303E-004
         1.0468426862940931E-004 -2.7687595937098840E-005 -1.6005418914484372E-004
         2.3939621033747526E-004 -6.1279245787763720E-004  5.6495201655676558E-004
         4.8925580579424004E-005  1.5932051601172742E-004 -2.2777553232662364E-004
        -2.6666772646517182E-004 -4.6864532024882031E-004 -5.5808403175674498E-005
         6.8157790932038605E-005  2.7200759168531869E-004 -1.1299755396820895E-005
         1.4412278861177202E-004 -1.0152940199908769E-003 -9.6763536308031213E-004
        -3.7644472062585704E-005  5.4040550034885164E-004 -1.1788521366026420E-004
        -6.3922704891102012E-004  1.6068040633310148E-003  7.4148679010167850E-004
        -4.3571445105234936E-004 -1.8820405403624597E-004  1.9981665246417331E-004
        -1.6474988221466393E-004  7.9013428311873839E-005 -3.3054998639497278E-004
         2.4102901502107884E-004  4.4086572307227222E-004 -1.8894489359436514E-004
         8.1824090425697011E-004 -3.8458620782066570E-004  1.8466915111275503E-004
         3.7644908843463609E-005 -2.3659422855821071E-004  1.2079901989107888E-003
        -1.9214801619888702E-004 -7.8452691750056599E-004  2.1720440625202631E-005
         7.8520974441115770E-005  3.0770623020265884E-004  8.9696203316522706E-005
         2.2331993822112767E-004  9.8931717061723863E-004 -1.3631445650305386E-003
         3.2762116063479453E-004 -4.3850643133053647E-004 -4.1454507101913664E-004
        -4.3189510532530112E-004  1.1326883517055071E-004 -9.0485642294652643E-005
         2.0166240549269475E-004  1.0521289062749299E-003 -9.7713031928268803E-005
        -3.1255162373263487E-005  1.6135054822871876E-005  1.0048439818343334E-004
         3.6587459910042674E-004  4.0045419425397522E-004  1.4563928562125292E-004
     &END VELOCITY
     &KIND "As"
       BASIS_SET "DZVP-MOLOPT-SR-GTH"
       POTENTIAL "GTH-PBE"
       &POTENTIAL
         2 3
           5.2000000000000002E-001 0
         3
           4.5554957000000001E-001 3  5.5206732699999996E+000  3.5122199999999999E-002 -1.0610823899999999E+000
                                                              -1.7711931999999999E+000  2.7397029499999999E+000
                                                                                       -2.1745717999999998E+000
           5.5460556999999999E-001 2  1.0217915600000000E+000  6.2920825999999996E-001
                                                              -7.4448924999999999E-001
           7.0368872000000005E-001 1  3.1479504000000003E-001
         # Potential name: GTH-PBE for element symbol: AS
         # Potential read from the potential filename: GTH_POTENTIALS
       &END POTENTIAL
     &END KIND
     &KIND "Se"
       BASIS_SET "DZVP-MOLOPT-SR-GTH"
       POTENTIAL "GTH-PBE"
       &POTENTIAL
         2 4
           5.1000000000000001E-001 0
         3
           4.3246004999999998E-001 3  6.5181098999999998E+000 -2.2271638999999999E-001 -1.1961289900000001E+000
                                                              -1.6579783299999999E+000  3.0883917799999998E+000
                                                                                       -2.4513349799999999E+000
           4.7049162000000000E-001 2  2.2812622299999998E+000  3.6533528999999998E-001
                                                              -4.3227054999999998E-001
           6.2560033999999998E-001 1  4.3979948000000002E-001
         # Potential name: GTH-PBE for element symbol: SE
         # Potential read from the potential filename: GTH_POTENTIALS
       &END POTENTIAL
     &END KIND
     &TOPOLOGY
       COORD_FILE_NAME inputs/as2se3_96_seed.xyz
       COORD_FILE_FORMAT XYZ
       NUMBER_OF_ATOMS 96
       MULTIPLE_UNIT_CELL 1 1 1
     &END TOPOLOGY
   &END SUBSYS
 &END FORCE_EVAL
