 # Version information for this restart file 
 # current date 2025-09-29 18:01:17.322
 # current working dir /Users/jdmusgraves/GitHub/local_shakedown_kit
 # Program compiled at                                       2025-01-01 12:26:53
 # Program compiled on                                                          
 # Program compiled for                                                    arm64
 # Source code revision number                                                  
 &GLOBAL
   PRINT_LEVEL LOW
   PROJECT_NAME "md_smoke_compat"
   RUN_TYPE MD
 &END GLOBAL
 &MOTION
   &MD
     ENSEMBLE NVT
     STEPS 500
     TIMESTEP  4.9999999999999994E-001
     STEP_START_VAL 80
     TIME_START_VAL  4.0000000000000028E+001
     ECONS_START_VAL -7.7983049204072381E+002
     TEMPERATURE  3.0000000000000000E+002
     &THERMOSTAT
       TYPE CSVR
       &CSVR
         TIMECON  9.9999999999999989E+002
         &THERMOSTAT_ENERGY
             7.0163495619269434E-002
         &END THERMOSTAT_ENERGY
         &RNG_INIT
 Wiener process for Thermostat # 1        1 F T F  -1.2666210035519496E+00        1554799841.0        1284097120.0        4026638514.0         828293567.0         564636851.0        3185085663.0             12345.0             12345.0             12345.0             12345.0             12345.0             12345.0             12345.0             12345.0             12345.0             12345.0             12345.0             12345.0
         &END RNG_INIT
       &END CSVR
     &END THERMOSTAT
     &AVERAGES T
       &RESTART_AVERAGES
         ITIMES_START 1
         AVECPU  2.3405747313750007E+002
         AVEHUGONIOT  0.0000000000000000E+000
         AVETEMP_BARO  0.0000000000000000E+000
         AVEPOT -7.8147125899606522E+002
         AVEKIN  1.5908662114556498E+000
         AVETEMP  3.5252997739164775E+003
         AVEKIN_QM  0.0000000000000000E+000
         AVETEMP_QM  0.0000000000000000E+000
         AVEVOL  5.3986676664719977E+004
         AVECELL_A  3.7794522657712875E+001
         AVECELL_B  3.7794522657712875E+001
         AVECELL_C  3.7794522657712875E+001
         AVEALPHA  9.0000000000000000E+001
         AVEBETA  9.0000000000000000E+001
         AVEGAMMA  9.0000000000000000E+001
         AVE_ECONS -5.8084683820199544E+001
         AVE_PRESS  0.0000000000000000E+000
         AVE_PXX  0.0000000000000000E+000
       &END RESTART_AVERAGES
     &END AVERAGES
   &END MD
   &PRINT
     &TRAJECTORY SILENT
       FILENAME md_smoke_compat-pos-1.xyz
       FORMAT XMOL
       &EACH
         MD 5
       &END EACH
     &END TRAJECTORY
     &VELOCITIES SILENT
       FILENAME md_smoke_compat-vel-1.xyz
       &EACH
         MD 5
       &END EACH
     &END VELOCITIES
   &END PRINT
 &END MOTION
 &FORCE_EVAL
   METHOD QS
   &DFT
     BASIS_SET_FILE_NAME BASIS_MOLOPT
     POTENTIAL_FILE_NAME GTH_POTENTIALS
     &SCF
       MAX_SCF 120
       EPS_SCF  9.9999999999999995E-007
       SCF_GUESS ATOMIC
       IGNORE_CONVERGENCE_FAILURE T
       &OT T
         MINIMIZER DIIS
         LINESEARCH 2PNT
         PRECONDITIONER FULL_SINGLE_INVERSE
       &END OT
     &END SCF
     &QS
       EPS_DEFAULT  9.9999999999999998E-013
       EXTRAPOLATION ASPC
       EXTRAPOLATION_ORDER 3
     &END QS
     &MGRID
       CUTOFF  5.0000000000000000E+002
       REL_CUTOFF  6.0000000000000000E+001
     &END MGRID
     &XC
       DENSITY_CUTOFF  1.0000000000000000E-010
       GRADIENT_CUTOFF  1.0000000000000000E-010
       TAU_CUTOFF  1.0000000000000000E-010
       &XC_FUNCTIONAL NO_SHORTCUT
         &PBE T
         &END PBE
       &END XC_FUNCTIONAL
       &VDW_POTENTIAL
         POTENTIAL_TYPE PAIR_POTENTIAL
         &PAIR_POTENTIAL
           R_CUTOFF  1.6000000000000000E+001
           TYPE DFTD3
           PARAMETER_FILE_NAME dftd3.dat
           REFERENCE_FUNCTIONAL "PBE"
         &END PAIR_POTENTIAL
       &END VDW_POTENTIAL
     &END XC
   &END DFT
   &SUBSYS
     &CELL
       A  2.0000000000000004E+001  0.0000000000000000E+000  0.0000000000000000E+000
       B  0.0000000000000000E+000  2.0000000000000004E+001  0.0000000000000000E+000
       C  0.0000000000000000E+000  0.0000000000000000E+000  2.0000000000000004E+001
       MULTIPLE_UNIT_CELL 1 1 1
     &END CELL
     &COORD
       As  9.5589894542174800E+000  6.6582038459447084E+000  7.3935562960497849E+000
       As  1.3589212156113108E+001  1.9100998069600923E+001  1.3902345699196550E+001
       As  5.4639275954773385E+000  8.4763314365522326E+000  1.6794801099998971E+001
       As  2.0212966482825706E+001  1.2310128265289896E+001  1.6723342380912896E+001
       As  3.2747567922581928E+000  6.7361384664940183E-001  1.3833845025017220E+001
       As  9.2197709857974370E+000  1.5946594305097733E+001  1.8896009910562871E+001
       As  8.6175014632680309E+000  3.7072036324052421E-001  1.9145378697775449E+001
       As  7.0028157153123054E+000  2.5624183993846836E+000  3.2312762990254558E+000
       As  2.8968631935775471E+000  4.5644839499098371E+000  1.7712652920782421E+001
       As  1.0621105893468325E+001  1.4164569934507686E+001  5.7110250593109537E+000
       As  3.2815157320571777E+000  1.1535551897264856E+001  9.0594188503105890E+000
       As  7.4426584100382813E+000  8.0222865993566970E+000  1.7198250052751163E+001
       As  1.3807342050015139E+001  5.6493687044064600E-001  8.2866345346216583E+000
       As  1.7255814800286249E+001  1.8411842013309681E+001  1.5480900647874638E+001
       As  3.7570343578983190E-001  1.3003300996359817E+001  4.8601684894382222E+000
       As  1.7846075609432250E+000  5.1537139800413823E-001  1.8325842544764864E+001
       As  1.4927682180195456E+001  1.0432225711665241E+001  8.6711484628014865E+000
       As  1.1221970129739869E+001  1.1075488322922688E+001  7.2388060550632438E-001
       As  9.6494678486583148E+000  1.7696394389553099E+001  1.0469670471094483E+001
       As  1.4040553979395733E+001  1.4608954094095994E+001  4.1971744241201314E+000
       As  4.7040609466784247E+000  1.6405263867777343E+001  1.1812674565271807E+001
       As  1.5576847927230476E+001  1.1341802974650466E+000  9.6928378906528128E+000
       As  1.8765093679783551E+001  1.4142243210565038E+001  5.6876621835223728E+000
       As  4.4663384209532291E+000  1.9099021088992011E+001  1.1317965223077216E+001
       As  1.9272937845720850E+001  1.5160902978187906E+001  1.7605819780647989E+000
       As  8.3553327161203050E+000  1.6430065646417678E+001  5.2773468768486325E+000
       As  3.6275768334427014E+000  2.5131729273718850E+000  1.4909073558730949E+001
       As  2.5428445707879210E+000  7.3656551743228196E+000  1.3544100319542240E+001
       As  2.4381193531694718E+000  8.0501087128611939E+000  1.0643588216173063E+001
       As  4.4833491554818122E-001  1.9172406570226375E+000  1.6697710922236517E+001
       As  1.8112790451271930E+000  1.7710044726575674E+001  9.9633791527071747E+000
       As  1.4142578298125668E+001  7.7643601621324176E+000  1.4740327884210018E+001
       As  1.4186975252530813E+001  1.5774087463791705E+001  2.2875248149803764E+000
       As  1.6989443662759502E+001  2.7026932875852157E+000  1.3663708623048398E+001
       As  6.9968884370233173E+000  4.9187393674853747E-001  1.7059958222963193E+001
       As  3.9974988265360603E+000  1.5231081251058601E+001  1.3512810619886686E+001
       As  1.2914811282206806E+001  4.5544163391234997E+000  4.4392566511350440E+000
       As  1.7186892874267301E+001  8.7559008201594679E-001  1.8998474000493761E+001
       Se  1.9274281815958890E+001  6.9283931075789313E+000  1.0665163179472740E+001
       Se  1.7907063809548259E+001  4.7159207351322472E+000  1.5533338186162920E+001
       Se  1.5755108541443589E+001  7.6188259852840368E-001  1.2562373213648145E+001
       Se  1.7649983173086074E+001  1.7796933541742241E+001  4.8578874095212363E+000
       Se  2.6872067518181262E+000  1.2825212130804314E+001  1.8928347267430382E+001
       Se  9.2941563470011381E+000  1.0475512291150570E+001  7.5565540351465383E+000
       Se  1.3241726504198587E+001  1.1447087299251525E+001  9.5161275036440074E+000
       Se  1.7017570902183163E+001  8.3998545047168935E+000  7.6991766871062426E+000
       Se  5.4509036022671413E+000  1.0506021748050387E+001  8.7448399630936837E+000
       Se  1.0736921815505303E+001  1.9193261304223235E+001  1.6730632521911049E+000
       Se  1.1205608869502386E+001  7.1357293616479778E+000  5.7169425587727591E+000
       Se  1.0218179007585391E+001  1.3417023602881825E+001  7.9472970045141844E+000
       Se  1.6718307028957884E+001  9.5579254436895091E+000  3.3229283096384785E+000
       Se  1.9294523744188162E+001  6.7450558521395596E+000  1.4211831926170671E+001
       Se  1.3940098494604651E+000  1.1254085410415064E+001  1.4723579850775350E+000
       Se  1.5811692395913850E+001  7.3811764302656115E+000  9.7197983502473519E+000
       Se  1.9178285565241783E+001  7.0599606928237169E+000  4.4421929776024953E+000
       Se  6.3303229954092970E+000  7.6358412209659852E+000  2.6119780261955996E+000
       Se  1.9053215486472848E+001  4.4685237189639375E+000  3.5404248474638877E+000
       Se  1.2298428454026846E+001  1.7408951578913967E+001  5.6435472036159080E+000
       Se  5.4403564838504712E+000  4.5556968481601856E-001  9.8681238831400488E+000
       Se  1.7022625878040078E+001  1.5907797177214787E+001  2.5359010965017332E+000
       Se  1.1812442392178596E+001  1.7394480957517896E+001  1.0321671226469413E+000
       Se  1.0538266598220427E+000  7.2219351277940191E+000  8.6743509222571635E+000
       Se  8.5616567971982036E+000  1.1674883135760041E+001  1.4389005245268661E+001
       Se  1.0411371153251910E+001  7.0443951679101007E+000  1.2994863903102868E+001
       Se  1.7002565336705446E+000  8.8440054078662573E+000  3.5539901227924133E+000
       Se  7.3648551279350849E-001  1.8484164548187837E-001  5.9511715258930185E+000
       Se  1.9432807224278399E+001  1.2088730590808112E+001  2.7227379390339310E+000
       Se  3.7833448934811735E+000  3.4630358531586425E+000  2.0081134568111105E+000
       Se  1.9003487746105698E+001  1.5223501068434340E+000  7.0416675994130538E+000
       Se  5.2918093238652490E+000  9.4236797977698679E+000  9.7841789863635412E-002
       Se  1.1005214836266610E+001  1.5257694146894973E+001  1.6978506662258802E+001
       Se  8.3966860565516939E+000  1.4060771244972894E+000  1.9977541962968755E+000
       Se  1.9464550305784890E+001  3.3626853877765082E+000  1.9831738990851669E+001
       Se  2.3272407838940379E+000  1.7313427693964162E+001  7.7342294662810520E+000
       Se  5.6889620430368009E+000  1.5737062997650503E+001  1.0377620808492787E+000
       Se  6.4815308267069112E+000  1.5160522684373378E+001  8.2497128854319595E+000
       Se  1.5184900355705881E+001  4.3606176080469190E+000  7.0191122587155930E-001
       Se  1.8368675915952007E+001  8.9870122772002858E+000  1.7899859036622626E+001
       Se  1.0064974649004675E+001  2.6191864583332487E+000  1.9065215017912227E+001
       Se  4.7781943039004755E+000  8.7237597550350241E+000  6.1655589737037477E+000
       Se  1.4232266544765249E+001  5.5353921033670055E+000  1.8856446284087884E+001
       Se  1.2780683683731950E+000  5.5902871013723008E+000  1.9469811766604849E+001
       Se  1.3133318024922893E+001  9.0762394560663093E+000  7.5983315536763851E-001
       Se  1.1457215377959907E+001  1.9318358035678273E+001  8.8439639510010277E+000
       Se  1.5116478327377861E+001  1.6413237315109690E+001  7.3899746713280896E+000
       Se  9.9335744222735878E-001  1.7256512463190919E+001  4.1743833622289228E-001
       Se  2.3125855242571451E+000  2.6806377298093702E+000  1.9207120491741506E+001
       Se  1.3138017614602992E+001  1.1016513615319532E+001  3.9166110167252177E+000
       Se  1.3222921093856623E+001  1.1291557820544739E+001  1.7221292552391989E+000
       Se  3.9012596823890173E+000  1.9101398223842939E+001  1.6740607972837488E+001
       Se  1.3978134358017989E+001  1.3584248236010055E+001  1.8826935320464610E+001
       Se  5.1327942281982732E+000  1.7354725143532882E+001  2.9331314950163661E+000
       Se  6.6001787652327160E+000  1.4188177358768511E+001  1.2946229282715350E+001
       Se  2.3001671123497460E+000  1.2241306895299486E+000  9.9149993486238799E+000
       Se  6.4742099947956877E+000  1.0903565945289687E+001  1.4363477130272122E+001
       Se  9.1441505364542586E+000  5.5212714157759599E+000  1.2192871273793049E+001
     &END COORD
     &VELOCITY
         5.9959443626356917E-004  2.6741727768588112E-004 -4.6337585489058950E-004
         4.8074905948795242E-004  9.9790580682359718E-005 -1.3221085038970666E-004
         4.5821456631225797E-004 -8.9498055860324073E-005  7.9733150625088537E-005
         3.6594619880545731E-004 -2.7144260485857240E-004  3.8577231373316298E-004
         1.7035158446722403E-004 -1.2709511334118418E-004  1.2906924193000803E-004
         5.4080302427728392E-004 -1.4810549620958321E-004 -2.3284261097917592E-004
         1.2441503808413877E-004  6.0190073610988823E-005 -8.3762788241595223E-004
        -1.2757930404093347E-004 -2.9316032411123730E-004 -4.8700071872548518E-004
        -3.2182813076175713E-004  2.0221836134832905E-004 -1.1161740827035418E-004
        -2.3140281791395945E-004  3.3748463561039037E-004  4.0157167434036597E-004
         6.4110807474115547E-004 -2.5633639821455147E-004 -7.8435432952532458E-005
        -4.4267626881231879E-004  1.0285225156479278E-004  2.7191086791871007E-005
         5.2931112307952224E-004  2.1203102247555598E-004  8.8865377069837170E-005
        -2.4558730041402598E-004  1.8120947785705351E-004  1.3362012182796155E-004
         5.5116694068983507E-006  7.8483278375499491E-005 -1.1446304926473294E-004
         9.9277915429999943E-005 -2.2336077137922591E-004 -5.0539339026167490E-004
        -3.1837926234660422E-004 -5.9096189169058596E-005  3.7914763922147754E-004
         2.4985066206251709E-004 -6.4733144849568624E-005  2.6416230288976625E-005
         2.3469613231430676E-004  1.5537785498620052E-004 -2.0186063199926382E-004
        -1.2992049519603070E-004  2.5151275910544253E-004  4.6905966195577727E-005
         2.0413054646074142E-004 -3.3798473638525957E-004  1.1256320278532988E-004
        -3.9206149041421312E-004 -1.4296114463038188E-004 -5.5164897651502955E-006
         5.8487669814337321E-005  7.1949433154654680E-005 -8.9976584485457328E-005
        -2.6788781036238128E-004  4.7441176358478177E-004 -9.4154674967575206E-005
        -5.5044474376917838E-004 -3.5157785733384259E-004  3.1196500879636250E-004
         2.0909516765201699E-004 -1.2861605306890622E-004  3.1190392451266883E-004
        -1.9510853945070737E-005 -7.9814528923447919E-005  5.6428380794954152E-005
        -2.8163557769450792E-004  1.9957241748375447E-005 -3.5514138480647738E-004
        -3.4779971292990227E-004 -1.2649017817523440E-004  3.9623390239862597E-005
         8.9172277674556545E-005 -1.3871035272422689E-004  2.6732685246021561E-004
        -2.4698490795801115E-005 -1.1137547814211201E-003 -2.6774693212200569E-004
        -1.4553006110384545E-004 -4.4703823403320889E-006  3.2953602446296925E-005
         2.3109024370155886E-004  6.4607302161599723E-005  1.4417664351921983E-004
         7.7526863390579791E-005 -8.7888033900491893E-005 -3.3783814943927685E-006
         6.6455031372243412E-005 -1.8315711981554649E-005  2.0964628082492675E-004
         2.9061237185386377E-004 -1.4997593253973006E-004 -7.3594743598708176E-005
        -2.8592568375742001E-004  3.3298570751524967E-004  3.6725700112110882E-005
         1.4603684583685558E-004  1.8626222004700731E-004 -1.1441377483441407E-004
         1.9759699058030661E-004  6.1178863104619123E-005 -1.5848790395658514E-004
        -4.6137233245999984E-005  4.1708164952613541E-005 -3.9153847813713181E-004
        -1.2265464306073016E-004  7.7153353606172173E-005 -8.2689946164137782E-005
        -9.4332208966212556E-005 -3.1655480150560384E-004 -1.5265951133568872E-004
        -3.8556226228038290E-004 -2.1840290447761748E-004 -8.0003102984137033E-005
         8.9372847035843495E-005  5.6493809415142912E-005  6.3014266637561956E-006
         2.4119261240765697E-004 -3.8301611423472668E-004 -2.7804969845208718E-004
        -3.3849532511228292E-004 -1.8866277434860656E-004  2.3688556945178403E-004
        -6.1055910141635556E-004  1.5575722110632752E-004 -3.3065040897610996E-004
         1.9513935955068769E-004 -8.8691468087354842E-005 -4.6508101679573218E-005
        -4.2433635601024449E-004 -4.0530015450944629E-004  2.8600010564131006E-004
         5.5060320469290351E-005 -1.7281245436340939E-004 -4.9971443723527485E-004
         1.4185023182654416E-004 -4.4884586188599823E-006  4.0795912699348470E-005
         1.5838969220094933E-004 -3.3825807257493329E-004  1.3466943760130165E-004
        -1.5736103046804748E-004  2.3946849847437121E-004  3.0698279620530836E-004
         3.8565962738557318E-004  3.2871430369095620E-004 -3.9037743372604821E-004
        -2.7035091469647691E-005 -2.4352719146316637E-004 -4.5883990700616110E-004
        -2.7831613971363007E-004  1.5622487802063233E-004 -2.0730835970569179E-004
         1.5910651441756842E-004  4.7549667336369261E-004  1.1161199337959377E-004
         1.8783954145416883E-004 -2.9883943644571265E-004  2.2294073968274534E-004
        -1.1947739056994375E-004 -3.0571182145587897E-004  3.0399915941772533E-004
         1.2702697779034714E-004  8.7725239138973331E-005  1.7693431684973204E-004
        -2.0225867381429657E-004  1.2776409159928194E-004  8.1168270983023096E-005
        -1.7330602184869954E-005 -2.9131755864196879E-005  6.6669360365479964E-004
        -1.2421853371580424E-004  6.6030178676269584E-005 -4.9207101187095363E-005
        -1.2959438823011054E-004 -3.9726847753428256E-004 -6.0270621382254825E-005
        -2.7269544310288646E-004  6.9155703656976407E-005 -1.2253094123491521E-004
        -5.2233856587273031E-004  1.2553674380466078E-004  4.3459368451804808E-004
         2.2819268955607199E-004 -1.0140670469552682E-004 -1.8582125009493595E-006
         2.2302821029231211E-004  7.0189505116609184E-006  6.8448642748424301E-005
         5.1396054630177437E-004 -3.1840046344593976E-004 -2.6754773785417401E-004
         2.1307404807888598E-004 -2.2368488927904643E-004 -3.4166595789089394E-005
        -3.4135638591345507E-004  1.9459498115660656E-004  6.6774330669373979E-004
        -2.4978951918286498E-004  4.2604969008882995E-004  8.1472965016291194E-004
        -6.6886405165981642E-004 -9.9526160348837434E-005  9.9942852495222255E-005
        -1.4696543465091166E-004  3.3275072064680057E-004  2.6358111343559646E-004
        -1.8732837537737370E-004  3.4192197916240434E-004  3.5647637142505515E-004
         1.0468426907767661E-004 -2.7687595994203023E-005 -1.6005418878355484E-004
         2.3939621078083000E-004 -6.1279245736895111E-004  5.6495201642689128E-004
         4.8925580941390625E-005  1.5932051583681606E-004 -2.2777553229536788E-004
        -2.6666772628929428E-004 -4.6864532044170340E-004 -5.5808402888725059E-005
         6.8157790450533537E-005  2.7200759157039174E-004 -1.1299755058413269E-005
         1.4412278806147922E-004 -1.0152940210202326E-003 -9.6763536300110791E-004
        -3.7644471743744932E-005  5.4040550132607634E-004 -1.1788521334874460E-004
        -6.3922704878951954E-004  1.6068040629634236E-003  7.4148678977918787E-004
        -4.3571445064435947E-004 -1.8820405475251879E-004  1.9981665262431734E-004
        -1.6474988212930236E-004  7.9013428274734155E-005 -3.3054998678354010E-004
         2.4102901520479697E-004  4.4086572295759069E-004 -1.8894489314819226E-004
         8.1824090454094391E-004 -3.8458620822886977E-004  1.8466915151986294E-004
         3.7644908833044210E-005 -2.3659422838213936E-004  1.2079901989246265E-003
        -1.9214801662144858E-004 -7.8452691719630438E-004  2.1720440618152857E-005
         7.8520974267251307E-005  3.0770622995207549E-004  8.9696203502305925E-005
         2.2331993851431632E-004  9.8931717087540148E-004 -1.3631445648495818E-003
         3.2762116044974572E-004 -4.3850643082898432E-004 -4.1454507086389195E-004
        -4.3189510462909945E-004  1.1326883535331552E-004 -9.0485642437183067E-005
         2.0166240568303097E-004  1.0521289063718296E-003 -9.7713032295630327E-005
        -3.1255162251459797E-005  1.6135054059056738E-005  1.0048439843444845E-004
         3.6587459905040718E-004  4.0045419367991554E-004  1.4563928586507844E-004
     &END VELOCITY
     &KIND "As"
       BASIS_SET "DZVP-MOLOPT-SR-GTH"
       POTENTIAL "GTH-PBE"
       &POTENTIAL
         2 3
           5.2000000000000002E-001 0
         3
           4.5554957000000001E-001 3  5.5206732699999996E+000  3.5122199999999999E-002 -1.0610823899999999E+000
                                                              -1.7711931999999999E+000  2.7397029499999999E+000
                                                                                       -2.1745717999999998E+000
           5.5460556999999999E-001 2  1.0217915600000000E+000  6.2920825999999996E-001
                                                              -7.4448924999999999E-001
           7.0368872000000005E-001 1  3.1479504000000003E-001
         # Potential name: GTH-PBE for element symbol: AS
         # Potential read from the potential filename: GTH_POTENTIALS
       &END POTENTIAL
     &END KIND
     &KIND "Se"
       BASIS_SET "DZVP-MOLOPT-SR-GTH"
       POTENTIAL "GTH-PBE"
       &POTENTIAL
         2 4
           5.1000000000000001E-001 0
         3
           4.3246004999999998E-001 3  6.5181098999999998E+000 -2.2271638999999999E-001 -1.1961289900000001E+000
                                                              -1.6579783299999999E+000  3.0883917799999998E+000
                                                                                       -2.4513349799999999E+000
           4.7049162000000000E-001 2  2.2812622299999998E+000  3.6533528999999998E-001
                                                              -4.3227054999999998E-001
           6.2560033999999998E-001 1  4.3979948000000002E-001
         # Potential name: GTH-PBE for element symbol: SE
         # Potential read from the potential filename: GTH_POTENTIALS
       &END POTENTIAL
     &END KIND
     &TOPOLOGY
       COORD_FILE_NAME inputs/as2se3_96_seed.xyz
       COORD_FILE_FORMAT XYZ
       NUMBER_OF_ATOMS 96
       MULTIPLE_UNIT_CELL 1 1 1
     &END TOPOLOGY
   &END SUBSYS
 &END FORCE_EVAL
