&GLOBAL
  PROJECT md_loose_smear
  RUN_TYPE MD
  PRINT_LEVEL LOW
&END GLOBAL
&FORCE_EVAL
  METHOD QS
  &DFT
    BASIS_SET_FILE_NAME  BASIS_MOLOPT
    POTENTIAL_FILE_NAME  GTH_POTENTIALS
    &MGRID
      CUTOFF 400
      REL_CUTOFF 40
    &END MGRID
    &QS
      EPS_DEFAULT 1.0E-10
      EXTRAPOLATION ASPC
      EXTRAPOLATION_ORDER 3
    &END QS
    &SCF
      SCF_GUESS ATOMIC
      EPS_SCF 1.0E-4
      MAX_SCF 20
      IGNORE_CONVERGENCE_FAILURE
      ADDED_MOS 20
      &DIAGONALIZATION
        ALGORITHM STANDARD
      &END DIAGONALIZATION
      &SMEAR
        METHOD FERMI_DIRAC
        ELECTRONIC_TEMPERATURE [K] 3000
      &END SMEAR
      &MIXING
        METHOD BROYDEN_MIXING
        ALPHA 0.1
      &END MIXING
    &END SCF
    &XC
      &XC_FUNCTIONAL PBE
      &END XC_FUNCTIONAL
      &VDW_POTENTIAL
        POTENTIAL_TYPE PAIR_POTENTIAL
        &PAIR_POTENTIAL
          TYPE DFTD3
          PARAMETER_FILE_NAME dftd3.dat
          REFERENCE_FUNCTIONAL PBE
          R_CUTOFF 16
        &END PAIR_POTENTIAL
      &END VDW_POTENTIAL
    &END XC
  &END DFT
  &SUBSYS
    &CELL
      ABC 15.0 15.0 15.0
    &END CELL
    &TOPOLOGY
      COORD_FILE_FORMAT XYZ
      COORD_FILE inputs/as4se6_10_seed.xyz
    &END TOPOLOGY
    &KIND As
      BASIS_SET DZVP-MOLOPT-SR-GTH
      POTENTIAL GTH-PBE
    &END KIND
    &KIND Se
      BASIS_SET DZVP-MOLOPT-SR-GTH
      POTENTIAL GTH-PBE
    &END KIND
  &END SUBSYS
&END FORCE_EVAL
&MOTION
  &MD
    ENSEMBLE NVT
    STEPS 50
    TIMESTEP 0.5
    TEMPERATURE 300
    &THERMOSTAT
      TYPE CSVR
      &CSVR
        TIMECON 500
      &END CSVR
    &END THERMOSTAT
  &END MD
  &PRINT
    &TRAJECTORY
      FORMAT XYZ
      FILENAME md_loose_smear-pos-1.xyz
      &EACH
        MD 10
      &END EACH
    &END TRAJECTORY
    &VELOCITIES
      FILENAME md_loose_smear-vel-1.xyz
      &EACH
        MD 10
      &END EACH
    &END VELOCITIES
  &END PRINT
&END MOTION
